*SPEF "ieee 1481-1999"
*DESIGN "user_project_wrapper"
*DATE "11:01:28 Sunday September 20, 2026"
*VENDOR "The OpenROAD Project"
*PROGRAM "OpenROAD"
*VERSION "dcf36133a369abc8f3c5e5738cd4d82e4903c0e0"
*DESIGN_FLOW "NAME_SCOPE LOCAL" "PIN_CAP NONE"
*DIVIDER /
*DELIMITER :
*BUS_DELIMITER []
*T_UNIT 1 NS
*C_UNIT 1 PF
*R_UNIT 1 OHM
*L_UNIT 1 HENRY

*NAME_MAP
*1 analog_io[0]
*2 analog_io[10]
*3 analog_io[11]
*4 analog_io[12]
*5 analog_io[13]
*6 analog_io[14]
*7 analog_io[15]
*8 analog_io[16]
*9 analog_io[17]
*10 analog_io[18]
*11 analog_io[19]
*12 analog_io[1]
*13 analog_io[20]
*14 analog_io[21]
*15 analog_io[22]
*16 analog_io[23]
*17 analog_io[24]
*18 analog_io[25]
*19 analog_io[26]
*20 analog_io[27]
*21 analog_io[28]
*22 analog_io[2]
*23 analog_io[3]
*24 analog_io[4]
*25 analog_io[5]
*26 analog_io[6]
*27 analog_io[7]
*28 analog_io[8]
*29 analog_io[9]
*30 io_in[0]
*31 io_in[10]
*32 io_in[11]
*33 io_in[12]
*34 io_in[13]
*35 io_in[14]
*36 io_in[15]
*37 io_in[16]
*38 io_in[17]
*39 io_in[18]
*40 io_in[19]
*41 io_in[1]
*42 io_in[20]
*43 io_in[21]
*44 io_in[22]
*45 io_in[23]
*46 io_in[24]
*47 io_in[25]
*48 io_in[26]
*49 io_in[27]
*50 io_in[28]
*51 io_in[29]
*52 io_in[2]
*53 io_in[30]
*54 io_in[31]
*55 io_in[32]
*56 io_in[33]
*57 io_in[34]
*58 io_in[35]
*59 io_in[36]
*60 io_in[37]
*61 io_in[3]
*62 io_in[4]
*63 io_in[5]
*64 io_in[6]
*65 io_in[7]
*66 io_in[8]
*67 io_in[9]
*68 io_oeb[0]
*69 io_oeb[10]
*70 io_oeb[11]
*71 io_oeb[12]
*72 io_oeb[13]
*73 io_oeb[14]
*74 io_oeb[15]
*75 io_oeb[16]
*76 io_oeb[17]
*77 io_oeb[18]
*78 io_oeb[19]
*79 io_oeb[1]
*80 io_oeb[20]
*81 io_oeb[21]
*82 io_oeb[22]
*83 io_oeb[23]
*84 io_oeb[24]
*85 io_oeb[25]
*86 io_oeb[26]
*87 io_oeb[27]
*88 io_oeb[28]
*89 io_oeb[29]
*90 io_oeb[2]
*91 io_oeb[30]
*92 io_oeb[31]
*93 io_oeb[32]
*94 io_oeb[33]
*95 io_oeb[34]
*96 io_oeb[35]
*97 io_oeb[36]
*98 io_oeb[37]
*99 io_oeb[3]
*100 io_oeb[4]
*101 io_oeb[5]
*102 io_oeb[6]
*103 io_oeb[7]
*104 io_oeb[8]
*105 io_oeb[9]
*106 io_out[0]
*107 io_out[10]
*108 io_out[11]
*109 io_out[12]
*110 io_out[13]
*111 io_out[14]
*112 io_out[15]
*113 io_out[16]
*114 io_out[17]
*115 io_out[18]
*116 io_out[19]
*117 io_out[1]
*118 io_out[20]
*119 io_out[21]
*120 io_out[22]
*121 io_out[23]
*122 io_out[24]
*123 io_out[25]
*124 io_out[26]
*125 io_out[27]
*126 io_out[28]
*127 io_out[29]
*128 io_out[2]
*129 io_out[30]
*130 io_out[31]
*131 io_out[32]
*132 io_out[33]
*133 io_out[34]
*134 io_out[35]
*135 io_out[36]
*136 io_out[37]
*137 io_out[3]
*138 io_out[4]
*139 io_out[5]
*140 io_out[6]
*141 io_out[7]
*142 io_out[8]
*143 io_out[9]
*144 la_data_in[0]
*145 la_data_in[100]
*146 la_data_in[101]
*147 la_data_in[102]
*148 la_data_in[103]
*149 la_data_in[104]
*150 la_data_in[105]
*151 la_data_in[106]
*152 la_data_in[107]
*153 la_data_in[108]
*154 la_data_in[109]
*155 la_data_in[10]
*156 la_data_in[110]
*157 la_data_in[111]
*158 la_data_in[112]
*159 la_data_in[113]
*160 la_data_in[114]
*161 la_data_in[115]
*162 la_data_in[116]
*163 la_data_in[117]
*164 la_data_in[118]
*165 la_data_in[119]
*166 la_data_in[11]
*167 la_data_in[120]
*168 la_data_in[121]
*169 la_data_in[122]
*170 la_data_in[123]
*171 la_data_in[124]
*172 la_data_in[125]
*173 la_data_in[126]
*174 la_data_in[127]
*175 la_data_in[12]
*176 la_data_in[13]
*177 la_data_in[14]
*178 la_data_in[15]
*179 la_data_in[16]
*180 la_data_in[17]
*181 la_data_in[18]
*182 la_data_in[19]
*183 la_data_in[1]
*184 la_data_in[20]
*185 la_data_in[21]
*186 la_data_in[22]
*187 la_data_in[23]
*188 la_data_in[24]
*189 la_data_in[25]
*190 la_data_in[26]
*191 la_data_in[27]
*192 la_data_in[28]
*193 la_data_in[29]
*194 la_data_in[2]
*195 la_data_in[30]
*196 la_data_in[31]
*197 la_data_in[32]
*198 la_data_in[33]
*199 la_data_in[34]
*200 la_data_in[35]
*201 la_data_in[36]
*202 la_data_in[37]
*203 la_data_in[38]
*204 la_data_in[39]
*205 la_data_in[3]
*206 la_data_in[40]
*207 la_data_in[41]
*208 la_data_in[42]
*209 la_data_in[43]
*210 la_data_in[44]
*211 la_data_in[45]
*212 la_data_in[46]
*213 la_data_in[47]
*214 la_data_in[48]
*215 la_data_in[49]
*216 la_data_in[4]
*217 la_data_in[50]
*218 la_data_in[51]
*219 la_data_in[52]
*220 la_data_in[53]
*221 la_data_in[54]
*222 la_data_in[55]
*223 la_data_in[56]
*224 la_data_in[57]
*225 la_data_in[58]
*226 la_data_in[59]
*227 la_data_in[5]
*228 la_data_in[60]
*229 la_data_in[61]
*230 la_data_in[62]
*231 la_data_in[63]
*232 la_data_in[64]
*233 la_data_in[65]
*234 la_data_in[66]
*235 la_data_in[67]
*236 la_data_in[68]
*237 la_data_in[69]
*238 la_data_in[6]
*239 la_data_in[70]
*240 la_data_in[71]
*241 la_data_in[72]
*242 la_data_in[73]
*243 la_data_in[74]
*244 la_data_in[75]
*245 la_data_in[76]
*246 la_data_in[77]
*247 la_data_in[78]
*248 la_data_in[79]
*249 la_data_in[7]
*250 la_data_in[80]
*251 la_data_in[81]
*252 la_data_in[82]
*253 la_data_in[83]
*254 la_data_in[84]
*255 la_data_in[85]
*256 la_data_in[86]
*257 la_data_in[87]
*258 la_data_in[88]
*259 la_data_in[89]
*260 la_data_in[8]
*261 la_data_in[90]
*262 la_data_in[91]
*263 la_data_in[92]
*264 la_data_in[93]
*265 la_data_in[94]
*266 la_data_in[95]
*267 la_data_in[96]
*268 la_data_in[97]
*269 la_data_in[98]
*270 la_data_in[99]
*271 la_data_in[9]
*272 la_data_out[0]
*273 la_data_out[100]
*274 la_data_out[101]
*275 la_data_out[102]
*276 la_data_out[103]
*277 la_data_out[104]
*278 la_data_out[105]
*279 la_data_out[106]
*280 la_data_out[107]
*281 la_data_out[108]
*282 la_data_out[109]
*283 la_data_out[10]
*284 la_data_out[110]
*285 la_data_out[111]
*286 la_data_out[112]
*287 la_data_out[113]
*288 la_data_out[114]
*289 la_data_out[115]
*290 la_data_out[116]
*291 la_data_out[117]
*292 la_data_out[118]
*293 la_data_out[119]
*294 la_data_out[11]
*295 la_data_out[120]
*296 la_data_out[121]
*297 la_data_out[122]
*298 la_data_out[123]
*299 la_data_out[124]
*300 la_data_out[125]
*301 la_data_out[126]
*302 la_data_out[127]
*303 la_data_out[12]
*304 la_data_out[13]
*305 la_data_out[14]
*306 la_data_out[15]
*307 la_data_out[16]
*308 la_data_out[17]
*309 la_data_out[18]
*310 la_data_out[19]
*311 la_data_out[1]
*312 la_data_out[20]
*313 la_data_out[21]
*314 la_data_out[22]
*315 la_data_out[23]
*316 la_data_out[24]
*317 la_data_out[25]
*318 la_data_out[26]
*319 la_data_out[27]
*320 la_data_out[28]
*321 la_data_out[29]
*322 la_data_out[2]
*323 la_data_out[30]
*324 la_data_out[31]
*325 la_data_out[32]
*326 la_data_out[33]
*327 la_data_out[34]
*328 la_data_out[35]
*329 la_data_out[36]
*330 la_data_out[37]
*331 la_data_out[38]
*332 la_data_out[39]
*333 la_data_out[3]
*334 la_data_out[40]
*335 la_data_out[41]
*336 la_data_out[42]
*337 la_data_out[43]
*338 la_data_out[44]
*339 la_data_out[45]
*340 la_data_out[46]
*341 la_data_out[47]
*342 la_data_out[48]
*343 la_data_out[49]
*344 la_data_out[4]
*345 la_data_out[50]
*346 la_data_out[51]
*347 la_data_out[52]
*348 la_data_out[53]
*349 la_data_out[54]
*350 la_data_out[55]
*351 la_data_out[56]
*352 la_data_out[57]
*353 la_data_out[58]
*354 la_data_out[59]
*355 la_data_out[5]
*356 la_data_out[60]
*357 la_data_out[61]
*358 la_data_out[62]
*359 la_data_out[63]
*360 la_data_out[64]
*361 la_data_out[65]
*362 la_data_out[66]
*363 la_data_out[67]
*364 la_data_out[68]
*365 la_data_out[69]
*366 la_data_out[6]
*367 la_data_out[70]
*368 la_data_out[71]
*369 la_data_out[72]
*370 la_data_out[73]
*371 la_data_out[74]
*372 la_data_out[75]
*373 la_data_out[76]
*374 la_data_out[77]
*375 la_data_out[78]
*376 la_data_out[79]
*377 la_data_out[7]
*378 la_data_out[80]
*379 la_data_out[81]
*380 la_data_out[82]
*381 la_data_out[83]
*382 la_data_out[84]
*383 la_data_out[85]
*384 la_data_out[86]
*385 la_data_out[87]
*386 la_data_out[88]
*387 la_data_out[89]
*388 la_data_out[8]
*389 la_data_out[90]
*390 la_data_out[91]
*391 la_data_out[92]
*392 la_data_out[93]
*393 la_data_out[94]
*394 la_data_out[95]
*395 la_data_out[96]
*396 la_data_out[97]
*397 la_data_out[98]
*398 la_data_out[99]
*399 la_data_out[9]
*400 la_oenb[0]
*401 la_oenb[100]
*402 la_oenb[101]
*403 la_oenb[102]
*404 la_oenb[103]
*405 la_oenb[104]
*406 la_oenb[105]
*407 la_oenb[106]
*408 la_oenb[107]
*409 la_oenb[108]
*410 la_oenb[109]
*411 la_oenb[10]
*412 la_oenb[110]
*413 la_oenb[111]
*414 la_oenb[112]
*415 la_oenb[113]
*416 la_oenb[114]
*417 la_oenb[115]
*418 la_oenb[116]
*419 la_oenb[117]
*420 la_oenb[118]
*421 la_oenb[119]
*422 la_oenb[11]
*423 la_oenb[120]
*424 la_oenb[121]
*425 la_oenb[122]
*426 la_oenb[123]
*427 la_oenb[124]
*428 la_oenb[125]
*429 la_oenb[126]
*430 la_oenb[127]
*431 la_oenb[12]
*432 la_oenb[13]
*433 la_oenb[14]
*434 la_oenb[15]
*435 la_oenb[16]
*436 la_oenb[17]
*437 la_oenb[18]
*438 la_oenb[19]
*439 la_oenb[1]
*440 la_oenb[20]
*441 la_oenb[21]
*442 la_oenb[22]
*443 la_oenb[23]
*444 la_oenb[24]
*445 la_oenb[25]
*446 la_oenb[26]
*447 la_oenb[27]
*448 la_oenb[28]
*449 la_oenb[29]
*450 la_oenb[2]
*451 la_oenb[30]
*452 la_oenb[31]
*453 la_oenb[32]
*454 la_oenb[33]
*455 la_oenb[34]
*456 la_oenb[35]
*457 la_oenb[36]
*458 la_oenb[37]
*459 la_oenb[38]
*460 la_oenb[39]
*461 la_oenb[3]
*462 la_oenb[40]
*463 la_oenb[41]
*464 la_oenb[42]
*465 la_oenb[43]
*466 la_oenb[44]
*467 la_oenb[45]
*468 la_oenb[46]
*469 la_oenb[47]
*470 la_oenb[48]
*471 la_oenb[49]
*472 la_oenb[4]
*473 la_oenb[50]
*474 la_oenb[51]
*475 la_oenb[52]
*476 la_oenb[53]
*477 la_oenb[54]
*478 la_oenb[55]
*479 la_oenb[56]
*480 la_oenb[57]
*481 la_oenb[58]
*482 la_oenb[59]
*483 la_oenb[5]
*484 la_oenb[60]
*485 la_oenb[61]
*486 la_oenb[62]
*487 la_oenb[63]
*488 la_oenb[64]
*489 la_oenb[65]
*490 la_oenb[66]
*491 la_oenb[67]
*492 la_oenb[68]
*493 la_oenb[69]
*494 la_oenb[6]
*495 la_oenb[70]
*496 la_oenb[71]
*497 la_oenb[72]
*498 la_oenb[73]
*499 la_oenb[74]
*500 la_oenb[75]
*501 la_oenb[76]
*502 la_oenb[77]
*503 la_oenb[78]
*504 la_oenb[79]
*505 la_oenb[7]
*506 la_oenb[80]
*507 la_oenb[81]
*508 la_oenb[82]
*509 la_oenb[83]
*510 la_oenb[84]
*511 la_oenb[85]
*512 la_oenb[86]
*513 la_oenb[87]
*514 la_oenb[88]
*515 la_oenb[89]
*516 la_oenb[8]
*517 la_oenb[90]
*518 la_oenb[91]
*519 la_oenb[92]
*520 la_oenb[93]
*521 la_oenb[94]
*522 la_oenb[95]
*523 la_oenb[96]
*524 la_oenb[97]
*525 la_oenb[98]
*526 la_oenb[99]
*527 la_oenb[9]
*528 user_clock2
*529 user_irq[0]
*530 user_irq[1]
*531 user_irq[2]
*540 wb_clk_i
*541 wb_rst_i
*542 wbs_ack_o
*543 wbs_adr_i[0]
*544 wbs_adr_i[10]
*545 wbs_adr_i[11]
*546 wbs_adr_i[12]
*547 wbs_adr_i[13]
*548 wbs_adr_i[14]
*549 wbs_adr_i[15]
*550 wbs_adr_i[16]
*551 wbs_adr_i[17]
*552 wbs_adr_i[18]
*553 wbs_adr_i[19]
*554 wbs_adr_i[1]
*555 wbs_adr_i[20]
*556 wbs_adr_i[21]
*557 wbs_adr_i[22]
*558 wbs_adr_i[23]
*559 wbs_adr_i[24]
*560 wbs_adr_i[25]
*561 wbs_adr_i[26]
*562 wbs_adr_i[27]
*563 wbs_adr_i[28]
*564 wbs_adr_i[29]
*565 wbs_adr_i[2]
*566 wbs_adr_i[30]
*567 wbs_adr_i[31]
*568 wbs_adr_i[3]
*569 wbs_adr_i[4]
*570 wbs_adr_i[5]
*571 wbs_adr_i[6]
*572 wbs_adr_i[7]
*573 wbs_adr_i[8]
*574 wbs_adr_i[9]
*575 wbs_cyc_i
*576 wbs_dat_i[0]
*577 wbs_dat_i[10]
*578 wbs_dat_i[11]
*579 wbs_dat_i[12]
*580 wbs_dat_i[13]
*581 wbs_dat_i[14]
*582 wbs_dat_i[15]
*583 wbs_dat_i[16]
*584 wbs_dat_i[17]
*585 wbs_dat_i[18]
*586 wbs_dat_i[19]
*587 wbs_dat_i[1]
*588 wbs_dat_i[20]
*589 wbs_dat_i[21]
*590 wbs_dat_i[22]
*591 wbs_dat_i[23]
*592 wbs_dat_i[24]
*593 wbs_dat_i[25]
*594 wbs_dat_i[26]
*595 wbs_dat_i[27]
*596 wbs_dat_i[28]
*597 wbs_dat_i[29]
*598 wbs_dat_i[2]
*599 wbs_dat_i[30]
*600 wbs_dat_i[31]
*601 wbs_dat_i[3]
*602 wbs_dat_i[4]
*603 wbs_dat_i[5]
*604 wbs_dat_i[6]
*605 wbs_dat_i[7]
*606 wbs_dat_i[8]
*607 wbs_dat_i[9]
*608 wbs_dat_o[0]
*609 wbs_dat_o[10]
*610 wbs_dat_o[11]
*611 wbs_dat_o[12]
*612 wbs_dat_o[13]
*613 wbs_dat_o[14]
*614 wbs_dat_o[15]
*615 wbs_dat_o[16]
*616 wbs_dat_o[17]
*617 wbs_dat_o[18]
*618 wbs_dat_o[19]
*619 wbs_dat_o[1]
*620 wbs_dat_o[20]
*621 wbs_dat_o[21]
*622 wbs_dat_o[22]
*623 wbs_dat_o[23]
*624 wbs_dat_o[24]
*625 wbs_dat_o[25]
*626 wbs_dat_o[26]
*627 wbs_dat_o[27]
*628 wbs_dat_o[28]
*629 wbs_dat_o[29]
*630 wbs_dat_o[2]
*631 wbs_dat_o[30]
*632 wbs_dat_o[31]
*633 wbs_dat_o[3]
*634 wbs_dat_o[4]
*635 wbs_dat_o[5]
*636 wbs_dat_o[6]
*637 wbs_dat_o[7]
*638 wbs_dat_o[8]
*639 wbs_dat_o[9]
*640 wbs_sel_i[0]
*641 wbs_sel_i[1]
*642 wbs_sel_i[2]
*643 wbs_sel_i[3]
*644 wbs_stb_i
*645 wbs_we_i
*646 afe_data\[0\]
*647 afe_data\[10\]
*648 afe_data\[11\]
*649 afe_data\[1\]
*650 afe_data\[2\]
*651 afe_data\[3\]
*652 afe_data\[4\]
*653 afe_data\[5\]
*654 afe_data\[6\]
*655 afe_data\[7\]
*656 afe_data\[8\]
*657 afe_data\[9\]
*658 afe_eof
*659 afe_ibias
*660 afe_nbias
*661 afe_refby2
*662 afe_refhi
*663 afe_vout
*664 afe_vref
*665 analog_ctrl\[0\]
*666 analog_ctrl\[100\]
*667 analog_ctrl\[101\]
*668 analog_ctrl\[102\]
*669 analog_ctrl\[103\]
*670 analog_ctrl\[104\]
*671 analog_ctrl\[105\]
*672 analog_ctrl\[106\]
*673 analog_ctrl\[107\]
*674 analog_ctrl\[108\]
*675 analog_ctrl\[109\]
*676 analog_ctrl\[10\]
*677 analog_ctrl\[110\]
*678 analog_ctrl\[111\]
*679 analog_ctrl\[112\]
*680 analog_ctrl\[113\]
*681 analog_ctrl\[114\]
*682 analog_ctrl\[115\]
*683 analog_ctrl\[116\]
*684 analog_ctrl\[117\]
*685 analog_ctrl\[118\]
*686 analog_ctrl\[119\]
*687 analog_ctrl\[11\]
*688 analog_ctrl\[120\]
*689 analog_ctrl\[121\]
*690 analog_ctrl\[122\]
*691 analog_ctrl\[12\]
*692 analog_ctrl\[13\]
*693 analog_ctrl\[14\]
*694 analog_ctrl\[15\]
*695 analog_ctrl\[16\]
*696 analog_ctrl\[17\]
*697 analog_ctrl\[18\]
*698 analog_ctrl\[19\]
*699 analog_ctrl\[1\]
*700 analog_ctrl\[20\]
*701 analog_ctrl\[21\]
*702 analog_ctrl\[22\]
*703 analog_ctrl\[23\]
*704 analog_ctrl\[24\]
*705 analog_ctrl\[25\]
*706 analog_ctrl\[26\]
*707 analog_ctrl\[27\]
*708 analog_ctrl\[28\]
*709 analog_ctrl\[29\]
*710 analog_ctrl\[2\]
*711 analog_ctrl\[30\]
*712 analog_ctrl\[31\]
*713 analog_ctrl\[32\]
*714 analog_ctrl\[33\]
*715 analog_ctrl\[34\]
*716 analog_ctrl\[35\]
*717 analog_ctrl\[36\]
*718 analog_ctrl\[37\]
*719 analog_ctrl\[38\]
*720 analog_ctrl\[39\]
*721 analog_ctrl\[3\]
*722 analog_ctrl\[40\]
*723 analog_ctrl\[41\]
*724 analog_ctrl\[42\]
*725 analog_ctrl\[43\]
*726 analog_ctrl\[44\]
*727 analog_ctrl\[45\]
*728 analog_ctrl\[46\]
*729 analog_ctrl\[47\]
*730 analog_ctrl\[48\]
*731 analog_ctrl\[49\]
*732 analog_ctrl\[4\]
*733 analog_ctrl\[50\]
*734 analog_ctrl\[51\]
*735 analog_ctrl\[52\]
*736 analog_ctrl\[53\]
*737 analog_ctrl\[54\]
*738 analog_ctrl\[55\]
*739 analog_ctrl\[56\]
*740 analog_ctrl\[57\]
*741 analog_ctrl\[58\]
*742 analog_ctrl\[59\]
*743 analog_ctrl\[5\]
*744 analog_ctrl\[60\]
*745 analog_ctrl\[61\]
*746 analog_ctrl\[62\]
*747 analog_ctrl\[63\]
*748 analog_ctrl\[64\]
*749 analog_ctrl\[65\]
*750 analog_ctrl\[66\]
*751 analog_ctrl\[67\]
*752 analog_ctrl\[68\]
*753 analog_ctrl\[69\]
*754 analog_ctrl\[6\]
*755 analog_ctrl\[70\]
*756 analog_ctrl\[71\]
*757 analog_ctrl\[72\]
*758 analog_ctrl\[73\]
*759 analog_ctrl\[74\]
*760 analog_ctrl\[75\]
*761 analog_ctrl\[76\]
*762 analog_ctrl\[77\]
*763 analog_ctrl\[78\]
*764 analog_ctrl\[79\]
*765 analog_ctrl\[7\]
*766 analog_ctrl\[80\]
*767 analog_ctrl\[81\]
*768 analog_ctrl\[82\]
*769 analog_ctrl\[83\]
*770 analog_ctrl\[84\]
*771 analog_ctrl\[85\]
*772 analog_ctrl\[86\]
*773 analog_ctrl\[87\]
*774 analog_ctrl\[88\]
*775 analog_ctrl\[89\]
*776 analog_ctrl\[8\]
*777 analog_ctrl\[90\]
*778 analog_ctrl\[91\]
*779 analog_ctrl\[92\]
*780 analog_ctrl\[93\]
*781 analog_ctrl\[94\]
*782 analog_ctrl\[95\]
*783 analog_ctrl\[96\]
*784 analog_ctrl\[97\]
*785 analog_ctrl\[98\]
*786 analog_ctrl\[99\]
*787 analog_ctrl\[9\]
*788 u_afe_wb
*789 u_cf_adc_sar12
*790 u_cf_adc_sar12_sar_refs
*791 u_cf_bgr
*792 u_cf_buf_hiz
*793 u_cf_refbuf

*PORTS
analog_io[0] I
analog_io[10] I
analog_io[11] I
analog_io[12] I
analog_io[13] I
analog_io[14] I
analog_io[15] I
analog_io[16] I
analog_io[17] I
analog_io[18] I
analog_io[19] I
analog_io[1] I
analog_io[20] I
analog_io[21] I
analog_io[22] I
analog_io[23] I
analog_io[24] I
analog_io[25] I
analog_io[26] I
analog_io[27] I
analog_io[28] I
analog_io[2] I
analog_io[3] I
analog_io[4] I
analog_io[5] I
analog_io[6] I
analog_io[7] I
analog_io[8] I
analog_io[9] I
io_in[0] I
io_in[10] I
io_in[11] I
io_in[12] I
io_in[13] I
io_in[14] I
io_in[15] I
io_in[16] I
io_in[17] I
io_in[18] I
io_in[19] I
io_in[1] I
io_in[20] I
io_in[21] I
io_in[22] I
io_in[23] I
io_in[24] I
io_in[25] I
io_in[26] I
io_in[27] I
io_in[28] I
io_in[29] I
io_in[2] I
io_in[30] I
io_in[31] I
io_in[32] I
io_in[33] I
io_in[34] I
io_in[35] I
io_in[36] I
io_in[37] I
io_in[3] I
io_in[4] I
io_in[5] I
io_in[6] I
io_in[7] I
io_in[8] I
io_in[9] I
io_oeb[0] O
io_oeb[10] O
io_oeb[11] O
io_oeb[12] O
io_oeb[13] O
io_oeb[14] O
io_oeb[15] O
io_oeb[16] O
io_oeb[17] O
io_oeb[18] O
io_oeb[19] O
io_oeb[1] O
io_oeb[20] O
io_oeb[21] O
io_oeb[22] O
io_oeb[23] O
io_oeb[24] O
io_oeb[25] O
io_oeb[26] O
io_oeb[27] O
io_oeb[28] O
io_oeb[29] O
io_oeb[2] O
io_oeb[30] O
io_oeb[31] O
io_oeb[32] O
io_oeb[33] O
io_oeb[34] O
io_oeb[35] O
io_oeb[36] O
io_oeb[37] O
io_oeb[3] O
io_oeb[4] O
io_oeb[5] O
io_oeb[6] O
io_oeb[7] O
io_oeb[8] O
io_oeb[9] O
io_out[0] O
io_out[10] O
io_out[11] O
io_out[12] O
io_out[13] O
io_out[14] O
io_out[15] O
io_out[16] O
io_out[17] O
io_out[18] O
io_out[19] O
io_out[1] O
io_out[20] O
io_out[21] O
io_out[22] O
io_out[23] O
io_out[24] O
io_out[25] O
io_out[26] O
io_out[27] O
io_out[28] O
io_out[29] O
io_out[2] O
io_out[30] O
io_out[31] O
io_out[32] O
io_out[33] O
io_out[34] O
io_out[35] O
io_out[36] O
io_out[37] O
io_out[3] O
io_out[4] O
io_out[5] O
io_out[6] O
io_out[7] O
io_out[8] O
io_out[9] O
la_data_in[0] I
la_data_in[100] I
la_data_in[101] I
la_data_in[102] I
la_data_in[103] I
la_data_in[104] I
la_data_in[105] I
la_data_in[106] I
la_data_in[107] I
la_data_in[108] I
la_data_in[109] I
la_data_in[10] I
la_data_in[110] I
la_data_in[111] I
la_data_in[112] I
la_data_in[113] I
la_data_in[114] I
la_data_in[115] I
la_data_in[116] I
la_data_in[117] I
la_data_in[118] I
la_data_in[119] I
la_data_in[11] I
la_data_in[120] I
la_data_in[121] I
la_data_in[122] I
la_data_in[123] I
la_data_in[124] I
la_data_in[125] I
la_data_in[126] I
la_data_in[127] I
la_data_in[12] I
la_data_in[13] I
la_data_in[14] I
la_data_in[15] I
la_data_in[16] I
la_data_in[17] I
la_data_in[18] I
la_data_in[19] I
la_data_in[1] I
la_data_in[20] I
la_data_in[21] I
la_data_in[22] I
la_data_in[23] I
la_data_in[24] I
la_data_in[25] I
la_data_in[26] I
la_data_in[27] I
la_data_in[28] I
la_data_in[29] I
la_data_in[2] I
la_data_in[30] I
la_data_in[31] I
la_data_in[32] I
la_data_in[33] I
la_data_in[34] I
la_data_in[35] I
la_data_in[36] I
la_data_in[37] I
la_data_in[38] I
la_data_in[39] I
la_data_in[3] I
la_data_in[40] I
la_data_in[41] I
la_data_in[42] I
la_data_in[43] I
la_data_in[44] I
la_data_in[45] I
la_data_in[46] I
la_data_in[47] I
la_data_in[48] I
la_data_in[49] I
la_data_in[4] I
la_data_in[50] I
la_data_in[51] I
la_data_in[52] I
la_data_in[53] I
la_data_in[54] I
la_data_in[55] I
la_data_in[56] I
la_data_in[57] I
la_data_in[58] I
la_data_in[59] I
la_data_in[5] I
la_data_in[60] I
la_data_in[61] I
la_data_in[62] I
la_data_in[63] I
la_data_in[64] I
la_data_in[65] I
la_data_in[66] I
la_data_in[67] I
la_data_in[68] I
la_data_in[69] I
la_data_in[6] I
la_data_in[70] I
la_data_in[71] I
la_data_in[72] I
la_data_in[73] I
la_data_in[74] I
la_data_in[75] I
la_data_in[76] I
la_data_in[77] I
la_data_in[78] I
la_data_in[79] I
la_data_in[7] I
la_data_in[80] I
la_data_in[81] I
la_data_in[82] I
la_data_in[83] I
la_data_in[84] I
la_data_in[85] I
la_data_in[86] I
la_data_in[87] I
la_data_in[88] I
la_data_in[89] I
la_data_in[8] I
la_data_in[90] I
la_data_in[91] I
la_data_in[92] I
la_data_in[93] I
la_data_in[94] I
la_data_in[95] I
la_data_in[96] I
la_data_in[97] I
la_data_in[98] I
la_data_in[99] I
la_data_in[9] I
la_data_out[0] O
la_data_out[100] O
la_data_out[101] O
la_data_out[102] O
la_data_out[103] O
la_data_out[104] O
la_data_out[105] O
la_data_out[106] O
la_data_out[107] O
la_data_out[108] O
la_data_out[109] O
la_data_out[10] O
la_data_out[110] O
la_data_out[111] O
la_data_out[112] O
la_data_out[113] O
la_data_out[114] O
la_data_out[115] O
la_data_out[116] O
la_data_out[117] O
la_data_out[118] O
la_data_out[119] O
la_data_out[11] O
la_data_out[120] O
la_data_out[121] O
la_data_out[122] O
la_data_out[123] O
la_data_out[124] O
la_data_out[125] O
la_data_out[126] O
la_data_out[127] O
la_data_out[12] O
la_data_out[13] O
la_data_out[14] O
la_data_out[15] O
la_data_out[16] O
la_data_out[17] O
la_data_out[18] O
la_data_out[19] O
la_data_out[1] O
la_data_out[20] O
la_data_out[21] O
la_data_out[22] O
la_data_out[23] O
la_data_out[24] O
la_data_out[25] O
la_data_out[26] O
la_data_out[27] O
la_data_out[28] O
la_data_out[29] O
la_data_out[2] O
la_data_out[30] O
la_data_out[31] O
la_data_out[32] O
la_data_out[33] O
la_data_out[34] O
la_data_out[35] O
la_data_out[36] O
la_data_out[37] O
la_data_out[38] O
la_data_out[39] O
la_data_out[3] O
la_data_out[40] O
la_data_out[41] O
la_data_out[42] O
la_data_out[43] O
la_data_out[44] O
la_data_out[45] O
la_data_out[46] O
la_data_out[47] O
la_data_out[48] O
la_data_out[49] O
la_data_out[4] O
la_data_out[50] O
la_data_out[51] O
la_data_out[52] O
la_data_out[53] O
la_data_out[54] O
la_data_out[55] O
la_data_out[56] O
la_data_out[57] O
la_data_out[58] O
la_data_out[59] O
la_data_out[5] O
la_data_out[60] O
la_data_out[61] O
la_data_out[62] O
la_data_out[63] O
la_data_out[64] O
la_data_out[65] O
la_data_out[66] O
la_data_out[67] O
la_data_out[68] O
la_data_out[69] O
la_data_out[6] O
la_data_out[70] O
la_data_out[71] O
la_data_out[72] O
la_data_out[73] O
la_data_out[74] O
la_data_out[75] O
la_data_out[76] O
la_data_out[77] O
la_data_out[78] O
la_data_out[79] O
la_data_out[7] O
la_data_out[80] O
la_data_out[81] O
la_data_out[82] O
la_data_out[83] O
la_data_out[84] O
la_data_out[85] O
la_data_out[86] O
la_data_out[87] O
la_data_out[88] O
la_data_out[89] O
la_data_out[8] O
la_data_out[90] O
la_data_out[91] O
la_data_out[92] O
la_data_out[93] O
la_data_out[94] O
la_data_out[95] O
la_data_out[96] O
la_data_out[97] O
la_data_out[98] O
la_data_out[99] O
la_data_out[9] O
la_oenb[0] I
la_oenb[100] I
la_oenb[101] I
la_oenb[102] I
la_oenb[103] I
la_oenb[104] I
la_oenb[105] I
la_oenb[106] I
la_oenb[107] I
la_oenb[108] I
la_oenb[109] I
la_oenb[10] I
la_oenb[110] I
la_oenb[111] I
la_oenb[112] I
la_oenb[113] I
la_oenb[114] I
la_oenb[115] I
la_oenb[116] I
la_oenb[117] I
la_oenb[118] I
la_oenb[119] I
la_oenb[11] I
la_oenb[120] I
la_oenb[121] I
la_oenb[122] I
la_oenb[123] I
la_oenb[124] I
la_oenb[125] I
la_oenb[126] I
la_oenb[127] I
la_oenb[12] I
la_oenb[13] I
la_oenb[14] I
la_oenb[15] I
la_oenb[16] I
la_oenb[17] I
la_oenb[18] I
la_oenb[19] I
la_oenb[1] I
la_oenb[20] I
la_oenb[21] I
la_oenb[22] I
la_oenb[23] I
la_oenb[24] I
la_oenb[25] I
la_oenb[26] I
la_oenb[27] I
la_oenb[28] I
la_oenb[29] I
la_oenb[2] I
la_oenb[30] I
la_oenb[31] I
la_oenb[32] I
la_oenb[33] I
la_oenb[34] I
la_oenb[35] I
la_oenb[36] I
la_oenb[37] I
la_oenb[38] I
la_oenb[39] I
la_oenb[3] I
la_oenb[40] I
la_oenb[41] I
la_oenb[42] I
la_oenb[43] I
la_oenb[44] I
la_oenb[45] I
la_oenb[46] I
la_oenb[47] I
la_oenb[48] I
la_oenb[49] I
la_oenb[4] I
la_oenb[50] I
la_oenb[51] I
la_oenb[52] I
la_oenb[53] I
la_oenb[54] I
la_oenb[55] I
la_oenb[56] I
la_oenb[57] I
la_oenb[58] I
la_oenb[59] I
la_oenb[5] I
la_oenb[60] I
la_oenb[61] I
la_oenb[62] I
la_oenb[63] I
la_oenb[64] I
la_oenb[65] I
la_oenb[66] I
la_oenb[67] I
la_oenb[68] I
la_oenb[69] I
la_oenb[6] I
la_oenb[70] I
la_oenb[71] I
la_oenb[72] I
la_oenb[73] I
la_oenb[74] I
la_oenb[75] I
la_oenb[76] I
la_oenb[77] I
la_oenb[78] I
la_oenb[79] I
la_oenb[7] I
la_oenb[80] I
la_oenb[81] I
la_oenb[82] I
la_oenb[83] I
la_oenb[84] I
la_oenb[85] I
la_oenb[86] I
la_oenb[87] I
la_oenb[88] I
la_oenb[89] I
la_oenb[8] I
la_oenb[90] I
la_oenb[91] I
la_oenb[92] I
la_oenb[93] I
la_oenb[94] I
la_oenb[95] I
la_oenb[96] I
la_oenb[97] I
la_oenb[98] I
la_oenb[99] I
la_oenb[9] I
user_clock2 I
user_irq[0] O
user_irq[1] O
user_irq[2] O
wb_clk_i I
wb_rst_i I
wbs_ack_o O
wbs_adr_i[0] I
wbs_adr_i[10] I
wbs_adr_i[11] I
wbs_adr_i[12] I
wbs_adr_i[13] I
wbs_adr_i[14] I
wbs_adr_i[15] I
wbs_adr_i[16] I
wbs_adr_i[17] I
wbs_adr_i[18] I
wbs_adr_i[19] I
wbs_adr_i[1] I
wbs_adr_i[20] I
wbs_adr_i[21] I
wbs_adr_i[22] I
wbs_adr_i[23] I
wbs_adr_i[24] I
wbs_adr_i[25] I
wbs_adr_i[26] I
wbs_adr_i[27] I
wbs_adr_i[28] I
wbs_adr_i[29] I
wbs_adr_i[2] I
wbs_adr_i[30] I
wbs_adr_i[31] I
wbs_adr_i[3] I
wbs_adr_i[4] I
wbs_adr_i[5] I
wbs_adr_i[6] I
wbs_adr_i[7] I
wbs_adr_i[8] I
wbs_adr_i[9] I
wbs_cyc_i I
wbs_dat_i[0] I
wbs_dat_i[10] I
wbs_dat_i[11] I
wbs_dat_i[12] I
wbs_dat_i[13] I
wbs_dat_i[14] I
wbs_dat_i[15] I
wbs_dat_i[16] I
wbs_dat_i[17] I
wbs_dat_i[18] I
wbs_dat_i[19] I
wbs_dat_i[1] I
wbs_dat_i[20] I
wbs_dat_i[21] I
wbs_dat_i[22] I
wbs_dat_i[23] I
wbs_dat_i[24] I
wbs_dat_i[25] I
wbs_dat_i[26] I
wbs_dat_i[27] I
wbs_dat_i[28] I
wbs_dat_i[29] I
wbs_dat_i[2] I
wbs_dat_i[30] I
wbs_dat_i[31] I
wbs_dat_i[3] I
wbs_dat_i[4] I
wbs_dat_i[5] I
wbs_dat_i[6] I
wbs_dat_i[7] I
wbs_dat_i[8] I
wbs_dat_i[9] I
wbs_dat_o[0] O
wbs_dat_o[10] O
wbs_dat_o[11] O
wbs_dat_o[12] O
wbs_dat_o[13] O
wbs_dat_o[14] O
wbs_dat_o[15] O
wbs_dat_o[16] O
wbs_dat_o[17] O
wbs_dat_o[18] O
wbs_dat_o[19] O
wbs_dat_o[1] O
wbs_dat_o[20] O
wbs_dat_o[21] O
wbs_dat_o[22] O
wbs_dat_o[23] O
wbs_dat_o[24] O
wbs_dat_o[25] O
wbs_dat_o[26] O
wbs_dat_o[27] O
wbs_dat_o[28] O
wbs_dat_o[29] O
wbs_dat_o[2] O
wbs_dat_o[30] O
wbs_dat_o[31] O
wbs_dat_o[3] O
wbs_dat_o[4] O
wbs_dat_o[5] O
wbs_dat_o[6] O
wbs_dat_o[7] O
wbs_dat_o[8] O
wbs_dat_o[9] O
wbs_sel_i[0] I
wbs_sel_i[1] I
wbs_sel_i[2] I
wbs_sel_i[3] I
wbs_stb_i I
wbs_we_i I

*D_NET *1 0.29917
*CONN
*P analog_io[0] I
*I *791:vb2_fast I *D CF_BGR
*CAP
1 analog_io[0] 0.121239
2 *791:vb2_fast 8.83758e-05
3 *1:14 0.0123171
4 *1:12 0.0122287
5 *1:10 0.0160293
6 *1:8 0.0160293
7 *1:6 0.121239
*RES
1 analog_io[0] *1:6 262.063 
2 *1:6 *1:8 3.41 
3 *1:8 *1:10 109.562 
4 *1:10 *1:12 4.5 
5 *1:12 *1:14 233.821 
6 *1:14 *791:vb2_fast 1.94196 
*END

*D_NET *2 0.463307
*CONN
*P analog_io[10] I
*I *792:vbnt I *D CF_BUF_HIZ
*CAP
1 analog_io[10] 0.100404
2 *792:vbnt 3.51497e-05
3 *2:18 9.60004e-05
4 *2:14 0.0142601
5 *2:12 0.0141992
6 *2:10 0.105194
7 *2:8 0.105194
8 *2:6 0.100404
9 *2:14 *4:26 0.0115086
10 *2:14 *5:22 0.00942159
11 *2:14 *7:26 0.00127207
12 *2:14 *29:14 0.00131786
*RES
1 analog_io[10] *2:6 688.765 
2 *2:6 *2:8 3.41 
3 *2:8 *2:10 213.287 
4 *2:10 *2:12 3.41 
5 *2:12 *2:14 47.5226 
6 *2:14 *2:18 3.48274 
7 *2:18 *792:vbnt 4.04839 
*END

*D_NET *3 0.406919
*CONN
*P analog_io[11] I
*I *792:vbpb I *D CF_BUF_HIZ
*CAP
1 analog_io[11] 0.0956163
2 *792:vbpb 7.18327e-05
3 *3:22 0.0115342
4 *3:16 0.0223959
5 *3:10 0.096309
6 *3:8 0.0853755
7 *3:6 0.0956163
8 *3:10 *141:45 0
9 *3:10 *672:17 0
10 *3:16 *784:21 0
11 *3:22 *784:21 0
*RES
1 analog_io[11] *3:6 655.979 
2 *3:6 *3:8 3.41 
3 *3:8 *3:10 178.18 
4 *3:10 *3:16 27.8903 
5 *3:16 *3:22 28.658 
6 *3:22 *792:vbpb 4.68679 
*END

*D_NET *4 0.368577
*CONN
*P analog_io[12] I
*I *792:vbpc I *D CF_BUF_HIZ
*CAP
1 analog_io[12] 0.000771428
2 *792:vbpc 4.29525e-05
3 *4:26 0.00705072
4 *4:18 0.0716306
5 *4:16 0.0646228
6 *4:14 0.0996001
7 *4:12 0.100372
8 *792:vbpc *7:26 2.96522e-05
9 *4:12 *75:20 0.000718457
10 *4:18 *671:17 0
11 *4:18 *767:19 0
12 *4:26 *5:22 0.000173072
13 *4:26 *29:14 0.0120574
14 *2:14 *4:26 0.0115086
*RES
1 analog_io[12] *4:12 9.88693 
2 *4:12 *4:14 683.161 
3 *4:14 *4:16 3.41 
4 *4:16 *4:18 139.11 
5 *4:18 *4:26 39.33 
6 *4:26 *792:vbpc 4.36536 
*END

*D_NET *5 0.33301
*CONN
*P analog_io[13] I
*I *792:vbnc I *D CF_BUF_HIZ
*CAP
1 analog_io[13] 0.0989788
2 *792:vbnc 9.92372e-05
3 *5:22 0.014189
4 *5:10 0.0626298
5 *5:8 0.04854
6 *5:6 0.0989788
7 *792:vbnc *7:26 0
8 *5:22 *7:26 0
9 *5:22 *29:14 0
10 *2:14 *5:22 0.00942159
11 *4:26 *5:22 0.000173072
*RES
1 analog_io[13] *5:6 678.646 
2 *5:6 *5:8 3.41 
3 *5:8 *5:10 104.569 
4 *5:10 *5:22 40.0487 
5 *5:22 *792:vbnc 2.30357 
*END

*D_NET *6 0.300537
*CONN
*P analog_io[14] I
*I *792:vbpci I *D CF_BUF_HIZ
*CAP
1 analog_io[14] 0.0800712
2 *792:vbpci 6.32656e-05
3 *6:18 0.0113328
4 *6:14 0.0492628
5 *6:12 0.0588599
6 *6:6 0.100938
7 *792:vbpci *10:20 9.13632e-06
*RES
1 analog_io[14] *6:6 549.122 
2 *6:6 *6:12 49.0775 
3 *6:12 *6:14 259.982 
4 *6:14 *6:18 26.7757 
5 *6:18 *792:vbpci 4.47696 
*END

*D_NET *7 0.306879
*CONN
*P analog_io[15] I
*I *792:vbnci I *D CF_BUF_HIZ
*CAP
1 analog_io[15] 0.0114841
2 *792:vbnci 0.000112711
3 *7:26 0.0120837
4 *7:24 0.0123888
5 *7:18 0.121937
6 *7:16 0.133003
7 *7:16 *77:28 0.00775936
8 *7:18 *29:14 0
9 *7:26 *792:vbncis 0
10 *7:26 *792:e_pd 0
11 *7:26 *29:14 0.00680813
12 *792:vbnc *7:26 0
13 *792:vbpc *7:26 2.96522e-05
14 *2:14 *7:26 0.00127207
15 *5:22 *7:26 0
*RES
1 analog_io[15] *7:16 39.2187 
2 *7:16 *7:18 275.892 
3 *7:18 *7:24 7.66488 
4 *7:24 *7:26 81.8988 
5 *7:26 *792:vbnci 2.55357 
*END

*D_NET *8 0.277548
*CONN
*P analog_io[16] I
*I *792:vbpcis I *D CF_BUF_HIZ
*CAP
1 analog_io[16] 0.00141612
2 *792:vbpcis 4.69988e-05
3 *8:18 0.00169861
4 *8:14 0.124102
5 *8:12 0.123866
6 *8:14 *761:21 0.0264183
*RES
1 analog_io[16] *8:12 13.6 
2 *8:12 *8:14 298.264 
3 *8:14 *8:18 6.93164 
4 *8:18 *792:vbpcis 4.29393 
*END

*D_NET *9 0.296851
*CONN
*P analog_io[17] I
*I *792:vbncis I *D CF_BUF_HIZ
*CAP
1 analog_io[17] 0.00513787
2 *792:vbncis 3.60058e-05
3 *9:24 0.00807375
4 *9:20 0.133946
5 *9:18 0.135214
6 *9:14 0.0144433
7 *9:20 *76:26 0
8 *9:20 *81:24 0
9 *7:26 *792:vbncis 0
*RES
1 analog_io[17] *9:14 41.2695 
2 *9:14 *9:18 22.9922 
3 *9:18 *9:20 286.469 
4 *9:20 *9:24 19.9294 
5 *9:24 *792:vbncis 3.95018 
*END

*D_NET *10 0.259673
*CONN
*P analog_io[18] I
*I *792:vbpcid I *D CF_BUF_HIZ
*CAP
1 analog_io[18] 0.00104645
2 *792:vbpcid 6.8847e-05
3 *10:24 0.000646555
4 *10:20 0.0233439
5 *10:18 0.0374762
6 *10:12 0.0936768
7 *10:10 0.0800132
8 *792:vbpcid *792:vbptd 4.33002e-05
9 *10:10 io_oeb[13] 0.000105015
10 *10:12 *74:9 0
11 *10:12 *91:17 0.00120187
12 *10:18 *18:10 0
13 *10:18 *18:12 0.00713926
14 *10:20 *11:20 0.0143102
15 *10:24 *792:vbptd 7.01305e-05
16 *10:24 *11:20 0.000166207
17 *10:24 *11:28 0.000356105
18 *792:vbpci *10:20 9.13632e-06
*RES
1 analog_io[18] *10:10 5.58767 
2 *10:10 *10:12 541.696 
3 *10:12 *10:18 43.9299 
4 *10:18 *10:20 192.048 
5 *10:20 *10:24 5.27232 
6 *10:24 *792:vbpcid 1.70536 
*END

*D_NET *11 0.237657
*CONN
*P analog_io[19] I
*I *792:vbptd I *D CF_BUF_HIZ
*CAP
1 analog_io[19] 0.00221928
2 *792:vbptd 7.27665e-05
3 *11:28 0.000447479
4 *11:20 0.0131727
5 *11:18 0.0308381
6 *11:12 0.0958313
7 *11:10 0.0800105
8 *11:10 *122:41 0.000118787
9 *11:18 *26:14 0
10 *792:vbpcid *792:vbptd 4.33002e-05
11 *10:20 *11:20 0.0143102
12 *10:24 *792:vbptd 7.01305e-05
13 *10:24 *11:20 0.000166207
14 *10:24 *11:28 0.000356105
*RES
1 analog_io[19] *11:10 7.87724 
2 *11:10 *11:12 533.804 
3 *11:12 *11:18 41.7679 
4 *11:18 *11:20 124.539 
5 *11:20 *11:28 13.5357 
6 *11:28 *792:vbptd 2.50446 
*END

*D_NET *12 0.383867
*CONN
*P analog_io[1] I
*I *792:vinp_p I *D CF_BUF_HIZ
*CAP
1 analog_io[1] 0.000259037
2 *792:vinp_p 6.7359e-05
3 *12:30 0.000601393
4 *12:18 0.0188117
5 *12:16 0.0182777
6 *12:14 0.142471
7 *12:12 0.142471
8 *12:10 0.00704308
9 *12:8 0.00730212
10 *792:vinp_p *792:vinn_na 0.000109231
11 *12:10 *24:10 0.00824321
12 *12:10 *103:25 0.00619213
13 *12:10 *143:17 0.00147745
14 *12:14 *791:mux2sel 0.00788884
15 *12:14 *791:inl_ctrl[4] 0
16 *12:14 *24:14 0
17 *12:18 *23:10 0.021374
18 *12:30 *792:tp 1.45499e-05
19 *12:30 *792:clk1_boostr 3.24612e-05
20 *12:30 *792:vinn_na 2.59766e-05
21 *12:30 *792:e_na_boost 5.04251e-06
22 *12:30 *24:26 0.000425482
23 *12:30 *710:29 0.000773516
*RES
1 analog_io[1] *12:8 3.81957 
2 *12:8 *12:10 69.744 
3 *12:10 *12:12 3.41 
4 *12:12 *12:14 301.723 
5 *12:14 *12:16 3.41 
6 *12:16 *12:18 57.1184 
7 *12:18 *12:30 16.6454 
8 *12:30 *792:vinp_p 1.94196 
*END

*D_NET *13 0.293338
*CONN
*P analog_io[20] I
*I *789:vinm I *D CF_ADC_SAR12
*CAP
1 analog_io[20] 0.000370666
2 *789:vinm 6.84712e-05
3 *13:22 0.0049084
4 *13:18 0.0868508
5 *13:16 0.0820108
6 *13:14 0.0538779
7 *13:12 0.0542485
8 *789:vinm *789:vinp 3.92775e-05
9 *13:12 *122:39 0.00034625
10 *13:14 io_oeb[11] 0
11 *13:18 *650:13 0.00842245
12 *13:22 *663:36 0.00219433
*RES
1 analog_io[20] *13:12 8.03193 
2 *13:12 *13:14 115.251 
3 *13:14 *13:16 3.41 
4 *13:16 *13:18 192.187 
5 *13:18 *13:22 15.7855 
6 *13:22 *789:vinm 0.3478 
*END

*D_NET *14 0.354536
*CONN
*P analog_io[21] I
*I *790:refout O *D CF_ADC_SAR12_sar_refs
*CAP
1 analog_io[21] 0.00207541
2 *790:refout 0.000311179
3 *14:24 0.0782127
4 *14:22 0.0761373
5 *14:20 0.087109
6 *14:18 0.0953463
7 *14:7 0.00854851
8 *14:18 *790:IREF_VREFBUF 0
9 *14:18 *108:39 0.00657515
10 *14:18 *661:24 1.59817e-05
11 *14:18 *662:20 0.000204103
*RES
1 *790:refout *14:7 0.770017 
2 *14:7 *14:18 25.517 
3 *14:18 *14:20 198.275 
4 *14:20 *14:22 3.41 
5 *14:22 *14:24 164.05 
6 *14:24 analog_io[21] 3.97598 
*END

*D_NET *15 0.243511
*CONN
*P analog_io[22] I
*I *789:vreflo I *D CF_ADC_SAR12
*CAP
1 analog_io[22] 0.000379416
2 *789:vreflo 6.30932e-05
3 *15:38 0.000216271
4 *15:30 0.0140276
5 *15:28 0.0177895
6 *15:18 0.0608933
7 *15:16 0.0569782
8 *15:14 0.0432772
9 *15:12 0.0436566
10 *789:vreflo *789:vinp 5.50226e-05
11 *15:12 *125:23 0.000162662
12 *15:18 *723:13 0.00577693
13 *15:28 *787:61 0.000155355
14 *15:38 *663:36 8.00474e-05
*RES
1 analog_io[22] *15:12 7.65145 
2 *15:12 *15:14 86.7329 
3 *15:14 *15:16 3.41 
4 *15:16 *15:18 133.214 
5 *15:18 *15:28 19.8401 
6 *15:28 *15:30 265.036 
7 *15:30 *15:38 8.38998 
8 *15:38 *789:vreflo 0.3478 
*END

*D_NET *17 0.0217896
*CONN
*P analog_io[24] I
*I *791:dft_curr_in I *D CF_BGR
*CAP
1 analog_io[24] 0.00753236
2 *791:dft_curr_in 8.73626e-05
3 *17:16 0.00761972
4 *17:16 io_out[30] 0.00236756
5 *17:16 *84:33 0.00380346
6 *17:16 *129:17 0.000379152
*RES
1 analog_io[24] *17:16 27.9163 
2 *17:16 *791:dft_curr_in 4.90107 
*END

*D_NET *18 0.213222
*CONN
*P analog_io[25] I
*I *790:vdda I *D CF_ADC_SAR12_sar_refs
*I *789:vdda I *D CF_ADC_SAR12
*CAP
1 analog_io[25] 0.00220015
2 *790:vdda 0
3 *789:vdda 0.000176945
4 *18:48 0.00132751
5 *18:44 0.0256918
6 *18:42 0.0435688
7 *18:31 0.0192904
8 *18:16 0.00955691
9 *18:14 0.00946582
10 *18:12 0.0463021
11 *18:10 0.0485023
12 *18:31 *651:9 0
13 *18:42 *651:9 0
14 *18:48 *20:38 0
15 *10:18 *18:10 0
16 *10:18 *18:12 0.00713926
*RES
1 analog_io[25] *18:10 3.97598 
2 *18:10 *18:12 105.084 
3 *18:12 *18:14 3.41 
4 *18:14 *18:16 64.3304 
5 *18:16 *789:vdda 1.73214 
6 *789:vdda *18:31 3.74527 
7 *18:31 *18:42 49.4277 
8 *18:42 *18:44 52.7586 
9 *18:44 *18:48 6.27252 
10 *18:48 *790:vdda 3.41 
*END

*D_NET *19 0.204424
*CONN
*P analog_io[26] I
*I *790:vssa_shield I *D CF_ADC_SAR12_sar_refs
*I *790:vssa I *D CF_ADC_SAR12_sar_refs
*I *789:vssa I *D CF_ADC_SAR12
*CAP
1 analog_io[26] 0.00223021
2 *790:vssa_shield 0.000115377
3 *790:vssa 0.00016218
4 *789:vssa 0.000103581
5 *19:67 0.000311917
6 *19:62 0.000254206
7 *19:47 0.00375602
8 *19:43 0.0315848
9 *19:41 0.0448848
10 *19:20 0.00128627
11 *19:14 0.0181342
12 *19:12 0.0426764
13 *19:10 0.0449066
14 *790:vssa *790:S_LV[1] 0
15 *19:20 *789:dft_inc[1] 0.000100157
16 *19:20 *789:dft_outc[2] 0.000768394
17 *19:20 *718:13 0.000700596
18 *19:20 *719:13 0
19 *19:41 *716:13 0.012448
20 *19:47 *790:S_LV[2] 0
21 *19:47 *790:S_LV[1] 0
*RES
1 analog_io[26] *19:10 3.97598 
2 *19:10 *19:12 89.8215 
3 *19:12 *19:14 3.41 
4 *19:14 *19:20 7.07656 
5 *19:20 *789:vssa 0.367383 
6 *19:14 *19:41 46.6398 
7 *19:41 *19:43 56.7738 
8 *19:43 *19:47 8.02021 
9 *19:47 *790:vssa 3.81733 
10 *790:vssa *19:62 1.42857 
11 *19:62 *19:67 1.33929 
12 *19:67 *790:vssa_shield 2.67857 
*END

*D_NET *20 0.208366
*CONN
*P analog_io[27] I
*I *789:VPUMP I *D CF_ADC_SAR12
*I *790:VPUMP I *D CF_ADC_SAR12_sar_refs
*CAP
1 analog_io[27] 0.0516692
2 *789:VPUMP 0
3 *790:VPUMP 3.93512e-05
4 *20:52 0.0142197
5 *20:38 0.00478987
6 *20:30 0.0361008
7 *20:28 0.0335043
8 *20:16 0.068043
9 *20:52 *776:37 0
10 *18:48 *20:38 0
*RES
1 analog_io[27] *20:16 20.2676 
2 *20:16 *20:28 23.5828 
3 *20:28 *20:30 68.0728 
4 *20:30 *20:38 13.8507 
5 *20:38 *790:VPUMP 6.90303 
6 *20:16 *20:52 31.7026 
7 *20:52 *789:VPUMP 3.41 
*END

*D_NET *22 0.38134
*CONN
*P analog_io[2] I
*I *792:vinn_p I *D CF_BUF_HIZ
*CAP
1 analog_io[2] 0.137985
2 *792:vinn_p 2.72142e-05
3 *22:18 0.00290324
4 *22:10 0.0524987
5 *22:8 0.0496227
6 *22:6 0.137985
7 *22:18 *792:clk1_boostr 0
8 *22:18 *23:18 0.000243078
9 *22:18 *24:26 0
10 *22:18 *25:30 6.95177e-05
11 *22:18 *710:29 6.04528e-06
*RES
1 analog_io[2] *22:6 298.379 
2 *22:6 *22:8 3.41 
3 *22:8 *22:10 112.364 
4 *22:10 *22:18 14.1474 
5 *22:18 *792:vinn_p 4.90625 
*END

*D_NET *23 0.413438
*CONN
*P analog_io[3] I
*I *792:vinp_n I *D CF_BUF_HIZ
*CAP
1 analog_io[3] 0.139784
2 *792:vinp_n 8.06117e-05
3 *23:18 0.000966496
4 *23:10 0.0559902
5 *23:8 0.0551043
6 *23:6 0.139784
7 *792:vinp_n *792:vinp_na 9.88109e-05
8 *23:18 *792:clk2_boost 4.3353e-06
9 *23:18 *25:30 8.93434e-06
10 *12:18 *23:10 0.021374
11 *22:18 *23:18 0.000243078
*RES
1 analog_io[3] *23:6 302.292 
2 *23:6 *23:8 3.41 
3 *23:8 *23:10 141.66 
4 *23:10 *23:18 10.4323 
5 *23:18 *792:vinp_n 6.38839 
*END

*D_NET *24 0.473372
*CONN
*P analog_io[4] I
*I *792:vinn_n I *D CF_BUF_HIZ
*CAP
1 analog_io[4] 0.000129469
2 *792:vinn_n 0
3 *24:26 0.00148976
4 *24:18 0.0263322
5 *24:16 0.0248424
6 *24:14 0.148136
7 *24:12 0.148136
8 *24:10 0.0341281
9 *24:8 0.0342576
10 *24:10 *103:25 0.00332973
11 *24:10 *104:17 0.0200655
12 *24:10 *105:17 0.00299498
13 *24:10 *109:17 0.00884353
14 *24:10 *110:25 0
15 *24:10 *143:17 0.0113937
16 *24:26 *792:clk2_boost 1.35971e-05
17 *24:26 *25:30 1.12775e-05
18 *24:26 *710:29 0.000599386
19 *24:26 *732:27 0
20 *24:26 *743:29 0
21 *12:10 *24:10 0.00824321
22 *12:14 *24:14 0
23 *12:30 *24:26 0.000425482
24 *22:18 *24:26 0
*RES
1 analog_io[4] *24:8 3.66514 
2 *24:8 *24:10 308.958 
3 *24:10 *24:12 3.41 
4 *24:12 *24:14 299.716 
5 *24:14 *24:16 3.41 
6 *24:16 *24:18 56.1292 
7 *24:18 *24:26 10.929 
8 *24:26 *792:vinn_n 4.5 
*END

*D_NET *25 0.510645
*CONN
*P analog_io[5] I
*I *792:vinp_na I *D CF_BUF_HIZ
*CAP
1 analog_io[5] 0.000956755
2 *792:vinp_na 6.69345e-05
3 *25:30 0.013263
4 *25:14 0.15347
5 *25:12 0.140274
6 *25:10 0.0487386
7 *25:8 0.0496953
8 *25:10 *107:50 0.0497796
9 *25:10 *111:25 0.0476878
10 *25:14 *29:10 0
11 *25:30 *792:clk2_boost 0
12 *25:30 *26:26 0.00652474
13 *792:vinp_n *792:vinp_na 9.88109e-05
14 *22:18 *25:30 6.95177e-05
15 *23:18 *25:30 8.93434e-06
16 *24:26 *25:30 1.12775e-05
*RES
1 analog_io[5] *25:8 5.2609 
2 *25:8 *25:10 443.542 
3 *25:10 *25:12 3.41 
4 *25:12 *25:14 302.032 
5 *25:14 *25:30 46.1568 
6 *25:30 *792:vinp_na 6.12946 
*END

*D_NET *26 0.468376
*CONN
*P analog_io[6] I
*I *792:vinn_na I *D CF_BUF_HIZ
*CAP
1 analog_io[6] 0.118113
2 *792:vinn_na 6.83639e-05
3 *26:26 0.00903106
4 *26:14 0.0324332
5 *26:12 0.0234705
6 *26:10 0.0799533
7 *26:8 0.0799533
8 *26:6 0.118113
9 *26:10 *701:13 6.30929e-05
10 *26:10 *715:13 0.000124636
11 *26:10 *726:13 0.00038072
12 *26:26 *792:clk1_boostr 1.08589e-05
13 *792:vinp_p *792:vinn_na 0.000109231
14 *11:18 *26:14 0
15 *12:30 *792:vinn_na 2.59766e-05
16 *25:30 *26:26 0.00652474
*RES
1 analog_io[6] *26:6 255.886 
2 *26:6 *26:8 3.41 
3 *26:8 *26:10 549.185 
4 *26:10 *26:12 3.41 
5 *26:12 *26:14 48.3059 
6 *26:14 *26:26 36.1224 
7 *26:26 *792:vinn_na 6.23661 
*END

*D_NET *27 0.353069
*CONN
*P analog_io[7] I
*I *793:ch1 I *D CF_REFBUF
*I *793:ch2 I *D CF_REFBUF
*I *793:out O *D CF_REFBUF
*CAP
1 analog_io[7] 0.103211
2 *793:ch1 5.08336e-05
3 *793:ch2 5.95938e-05
4 *793:out 0.000106029
5 *27:60 0.103211
6 *27:58 0.0692698
7 *27:56 0.0708597
8 *27:45 0.00165016
9 *27:23 0.000179728
10 *27:18 0.000191021
11 *27:16 0.000192608
12 *27:12 0.00205694
13 *27:7 0.00203183
*RES
1 *793:out *27:7 5.625 
2 *27:7 *27:12 37.9107 
3 *27:12 *27:16 1.35714 
4 *27:16 *27:18 1.35714 
5 *27:18 *27:23 2.17857 
6 *27:23 *793:ch2 5.625 
7 *27:16 *793:ch1 0.973214 
8 *793:out *27:45 1.73214 
9 *27:45 *27:56 23.3988 
10 *27:56 *27:58 475.265 
11 *27:58 *27:60 3.41 
12 *27:60 analog_io[7] 223.456 
*END

*D_NET *28 0.38767
*CONN
*P analog_io[8] I
*I *793:ng I *D CF_REFBUF
*I *793:vpwre I *D CF_REFBUF
*CAP
1 analog_io[8] 0.0806342
2 *793:ng 0.000138923
3 *793:vpwre 0
4 *28:28 0.00530578
5 *28:16 0.00389285
6 *28:14 0.009652
7 *28:10 0.104002
8 *28:8 0.10341
9 *28:6 0.0806342
*RES
1 analog_io[8] *28:6 553.372 
2 *28:6 *28:8 3.41 
3 *28:8 *28:10 210.301 
4 *28:10 *28:14 1.29921 
5 *28:14 *28:16 8.12876 
6 *28:16 *793:vpwre 3.41 
7 *28:14 *28:28 38.7999 
8 *28:28 *793:ng 3.08929 
*END

*D_NET *29 0.480842
*CONN
*P analog_io[9] I
*I *792:vbpt I *D CF_BUF_HIZ
*CAP
1 analog_io[9] 0.0979984
2 *792:vbpt 0.000237914
3 *29:14 0.0170021
4 *29:12 0.0167642
5 *29:10 0.115329
6 *29:8 0.115329
7 *29:6 0.0979984
8 *2:14 *29:14 0.00131786
9 *4:26 *29:14 0.0120574
10 *5:22 *29:14 0
11 *7:18 *29:14 0
12 *7:26 *29:14 0.00680813
13 *25:14 *29:10 0
*RES
1 analog_io[9] *29:6 672.372 
2 *29:6 *29:8 3.41 
3 *29:8 *29:10 249.166 
4 *29:10 *29:12 3.41 
5 *29:12 *29:14 47.5304 
6 *29:14 *792:vbpt 8.55801 
*END

*D_NET *69 0.556928
*CONN
*P io_oeb[10] O
*I *788:analog_io_oeb[3] O *D afe_wb
*CAP
1 io_oeb[10] 0.150729
2 *788:analog_io_oeb[3] 0.000301248
3 *69:11 0.150729
4 *69:9 0.0561764
5 *69:7 0.0564776
6 *69:7 *105:11 0
7 *69:9 *71:9 0.139097
8 *69:9 *83:9 0
9 *69:9 *88:9 0.00340342
10 *69:9 *126:9 1.37595e-05
*RES
1 *788:analog_io_oeb[3] *69:7 4.0022 
2 *69:7 *69:9 1733.52 
3 *69:9 *69:11 3.41 
4 *69:11 io_oeb[10] 455.305 
*END

*D_NET *70 0.523204
*CONN
*P io_oeb[11] O
*I *788:analog_io_oeb[4] O *D afe_wb
*CAP
1 io_oeb[11] 0.145072
2 *788:analog_io_oeb[4] 0.00690266
3 *70:18 0.145072
4 *70:16 0.108582
5 *70:14 0.115484
6 *70:14 *129:15 0.000983291
7 *70:14 *141:39 8.50973e-05
8 *70:14 *142:26 0
9 *70:16 *788:adc_data[2] 4.42127e-05
10 *70:16 *85:24 0.000978371
11 *13:14 io_oeb[11] 0
*RES
1 *788:analog_io_oeb[4] *70:14 6.66661 
2 *70:14 *70:16 347.026 
3 *70:16 *70:18 3.41 
4 *70:18 io_oeb[11] 439.342 
*END

*D_NET *71 0.704425
*CONN
*P io_oeb[12] O
*I *788:analog_io_oeb[5] O *D afe_wb
*CAP
1 io_oeb[12] 0.1505
2 *788:analog_io_oeb[5] 0.000253581
3 *71:11 0.1505
4 *71:9 0.0425656
5 *71:7 0.0428192
6 *71:7 *72:7 0
7 *71:9 *72:9 0.178168
8 *71:9 *83:9 0
9 *71:9 *88:9 0.000522377
10 *69:9 *71:9 0.139097
*RES
1 *788:analog_io_oeb[5] *71:7 3.93013 
2 *71:7 *71:9 2220.45 
3 *71:9 *71:11 3.41 
4 *71:11 io_oeb[12] 455.233 
*END

*D_NET *72 0.761559
*CONN
*P io_oeb[13] O
*I *788:analog_io_oeb[6] O *D afe_wb
*CAP
1 io_oeb[13] 0.150359
2 *788:analog_io_oeb[6] 0.000195112
3 *72:11 0.150359
4 *72:9 0.0421648
5 *72:7 0.0423599
6 *72:7 *78:17 6.94924e-06
7 *72:9 *74:9 0.197624
8 *72:9 *78:17 0.000118471
9 *72:9 *83:9 0
10 *72:9 *88:9 9.80665e-05
11 *10:10 io_oeb[13] 0.000105015
12 *71:7 *72:7 0
13 *71:9 *72:9 0.178168
*RES
1 *788:analog_io_oeb[6] *72:7 3.83613 
2 *72:7 *72:9 2463 
3 *72:9 *72:11 3.41 
4 *72:11 io_oeb[13] 455.161 
*END

*D_NET *73 0.634483
*CONN
*P io_oeb[14] O
*I *788:analog_io_oeb[7] O *D afe_wb
*CAP
1 io_oeb[14] 0.144224
2 *788:analog_io_oeb[7] 0.00776136
3 *73:20 0.144224
4 *73:18 0.136723
5 *73:16 0.144484
6 *73:16 *78:27 0.00137822
7 *73:16 *107:26 0.000465544
8 *73:16 *141:29 0.000172773
9 *73:16 *142:26 0
10 *73:18 *788:adc_data[3] 2.85852e-05
11 *73:18 *107:26 0.0431035
12 *73:18 *659:23 0.0119169
*RES
1 *788:analog_io_oeb[7] *73:16 8.68163 
2 *73:16 *73:18 472.682 
3 *73:18 *73:20 3.41 
4 *73:20 io_oeb[14] 437.324 
*END

*D_NET *74 0.882376
*CONN
*P io_oeb[15] O
*I *788:analog_io_oeb[8] O *D afe_wb
*CAP
1 io_oeb[15] 0.000105425
2 *788:analog_io_oeb[8] 0.000156035
3 *74:23 0.174425
4 *74:17 0.174353
5 *74:9 0.0922784
6 *74:7 0.0924007
7 *74:9 *78:17 0.000522377
8 *74:9 *83:9 0
9 *74:9 *89:23 0.000177943
10 *74:9 *104:11 0.000873728
11 *74:17 io_oeb[23] 0
12 *74:23 io_oeb[23] 0.000500083
13 *74:23 io_out[17] 0.000217575
14 *74:23 io_out[18] 0.000950993
15 *74:23 io_out[20] 0.000722869
16 *74:23 io_out[21] 0.000319005
17 *74:23 io_out[22] 0.000178973
18 *74:23 io_out[23] 0.00064946
19 *74:23 *75:20 0.0300088
20 *74:23 *76:30 0.0282045
21 *74:23 *76:44 0.000595318
22 *74:23 *76:46 0.00792734
23 *74:23 *77:28 0.0311612
24 *74:23 *78:33 0.0269746
25 *74:23 *80:43 0.0174707
26 *74:23 *82:31 0.00357828
27 *10:12 *74:9 0
28 *72:9 *74:9 0.197624
*RES
1 *788:analog_io_oeb[8] *74:7 3.76407 
2 *74:7 *74:9 2740.46 
3 *74:9 *74:17 7.28303 
4 *74:17 *74:23 47.2828 
5 *74:23 io_oeb[15] 8.17982 
*END

*D_NET *75 0.766188
*CONN
*P io_oeb[16] O
*I *788:analog_io_oeb[9] O *D afe_wb
*CAP
1 io_oeb[16] 0.000183177
2 *788:analog_io_oeb[9] 0.00386984
3 *75:20 0.0581436
4 *75:18 0.0579604
5 *75:16 0.108577
6 *75:14 0.112447
7 *75:14 *76:24 4.09284e-05
8 *75:14 *141:29 8.50973e-05
9 *75:14 *142:26 0
10 *75:16 *788:adc_data[1] 1.68422e-05
11 *75:16 *78:29 0.123296
12 *75:16 *82:27 0
13 *75:20 io_oeb[21] 4.98422e-05
14 *75:20 io_out[17] 0.000883197
15 *75:20 io_out[18] 0
16 *75:20 io_out[20] 0.0021183
17 *75:20 io_out[22] 0.00152154
18 *75:20 *76:30 0.13944
19 *75:20 *76:44 0.00488812
20 *75:20 *76:46 0.0385727
21 *75:20 *77:28 0.00763616
22 *75:20 *78:33 0.0108787
23 *75:20 *80:43 0.0360417
24 *75:20 *82:31 0.0288107
25 *4:12 *75:20 0.000718457
26 *74:23 *75:20 0.0300088
*RES
1 *788:analog_io_oeb[9] *75:14 5.67368 
2 *75:14 *75:16 481.578 
3 *75:16 *75:18 3.41 
4 *75:18 *75:20 350.904 
5 *75:20 io_oeb[16] 7.11536 
*END

*D_NET *76 0.671338
*CONN
*P io_oeb[17] O
*I *788:analog_io_oeb[10] O *D afe_wb
*CAP
1 io_oeb[17] 0.000221024
2 *788:analog_io_oeb[10] 0.0120756
3 *76:46 0.0127739
4 *76:44 0.0136471
5 *76:30 0.0463138
6 *76:28 0.0452195
7 *76:26 0.151313
8 *76:24 0.163388
9 *76:24 *77:20 0.00133518
10 *76:24 *80:37 9.98623e-06
11 *76:24 *82:27 0
12 *76:24 *141:29 7.06766e-05
13 *76:24 *142:26 0.000497412
14 *76:26 *77:24 0
15 *76:30 io_out[21] 0.00298533
16 *76:44 *77:28 0.00181902
17 *9:20 *76:26 0
18 *74:23 *76:30 0.0282045
19 *74:23 *76:44 0.000595318
20 *74:23 *76:46 0.00792734
21 *75:14 *76:24 4.09284e-05
22 *75:20 *76:30 0.13944
23 *75:20 *76:44 0.00488812
24 *75:20 *76:46 0.0385727
*RES
1 *788:analog_io_oeb[10] *76:24 13.3264 
2 *76:24 *76:26 482.004 
3 *76:26 *76:28 3.41 
4 *76:28 *76:30 217.364 
5 *76:30 *76:44 23.9326 
6 *76:44 *76:46 60.0785 
7 *76:46 io_oeb[17] 7.7225 
*END

*D_NET *77 0.589564
*CONN
*P io_oeb[18] O
*I *788:analog_io_oeb[11] O *D afe_wb
*CAP
1 io_oeb[18] 6.60743e-05
2 *788:analog_io_oeb[11] 0.0204328
3 *77:28 0.0482789
4 *77:26 0.0482128
5 *77:24 0.141332
6 *77:22 0.141332
7 *77:20 0.0204328
8 *77:20 *80:37 0.00135017
9 *77:20 *107:26 0
10 *77:20 *111:21 0
11 *77:20 *141:29 8.50973e-05
12 *77:24 *121:17 0
13 *77:24 *652:25 0
14 *77:28 *78:33 0.118331
15 *7:16 *77:28 0.00775936
16 *74:23 *77:28 0.0311612
17 *75:20 *77:28 0.00763616
18 *76:24 *77:20 0.00133518
19 *76:26 *77:24 0
20 *76:44 *77:28 0.00181902
*RES
1 *788:analog_io_oeb[11] *77:20 48.3707 
2 *77:20 *77:22 3.41 
3 *77:22 *77:24 450.363 
4 *77:24 *77:26 3.41 
5 *77:26 *77:28 235.237 
6 *77:28 io_oeb[18] 4.68679 
*END

*D_NET *78 0.647884
*CONN
*P io_oeb[19] O
*I *788:analog_io_oeb[12] O *D afe_wb
*CAP
1 io_oeb[19] 0.000103922
2 *788:analog_io_oeb[12] 0.00156644
3 *78:33 0.0211288
4 *78:31 0.0210249
5 *78:29 0.107421
6 *78:27 0.111672
7 *78:17 0.00581777
8 *78:17 *80:7 0
9 *78:17 *88:9 0.0017415
10 *78:29 *82:27 0
11 *78:33 io_out[20] 0.00371796
12 *78:33 io_out[23] 0.0011831
13 *78:33 *80:43 0.08712
14 *78:33 *82:31 0.00388103
15 *72:7 *78:17 6.94924e-06
16 *72:9 *78:17 0.000118471
17 *73:16 *78:27 0.00137822
18 *74:9 *78:17 0.000522377
19 *74:23 *78:33 0.0269746
20 *75:16 *78:29 0.123296
21 *75:20 *78:33 0.0108787
22 *77:28 *78:33 0.118331
*RES
1 *788:analog_io_oeb[12] *78:17 47.1741 
2 *78:17 *78:27 5.81841 
3 *78:27 *78:29 478.169 
4 *78:29 *78:31 3.41 
5 *78:31 *78:33 198.122 
6 *78:33 io_oeb[19] 5.29393 
*END

*D_NET *80 0.533385
*CONN
*P io_oeb[20] O
*I *788:analog_io_oeb[13] O *D afe_wb
*CAP
1 io_oeb[20] 0.000141769
2 *788:analog_io_oeb[13] 0.000239641
3 *80:43 0.0143996
4 *80:41 0.0142578
5 *80:39 0.152298
6 *80:37 0.16377
7 *80:9 0.012817
8 *80:7 0.0015848
9 *80:9 *82:9 0.0037029
10 *80:9 *88:9 0.00208512
11 *80:9 *122:17 0.000267651
12 *80:37 *82:25 0.00101791
13 *80:37 *82:27 0.000361478
14 *80:37 *84:19 0
15 *80:37 *91:7 2.73594e-05
16 *80:37 *108:33 0.000360481
17 *80:37 *111:15 0.000531057
18 *80:39 *788:adc_data[3] 5.87686e-05
19 *80:39 *121:17 0
20 *80:43 io_oeb[21] 4.73953e-05
21 *80:43 io_out[22] 0.00151909
22 *80:43 *82:31 0.0219037
23 *74:23 *80:43 0.0174707
24 *75:20 *80:43 0.0360417
25 *76:24 *80:37 9.98623e-06
26 *77:20 *80:37 0.00135017
27 *78:17 *80:7 0
28 *78:33 *80:43 0.08712
*RES
1 *788:analog_io_oeb[13] *80:7 3.93013 
2 *80:7 *80:9 58.4107 
3 *80:9 *80:37 23.2042 
4 *80:37 *80:39 484.987 
5 *80:39 *80:41 3.41 
6 *80:41 *80:43 135.785 
7 *80:43 io_oeb[20] 5.90107 
*END

*D_NET *81 0.417338
*CONN
*P io_oeb[21] O
*I *788:analog_io_oeb[14] O *D afe_wb
*CAP
1 io_oeb[21] 0.000200376
2 *788:analog_io_oeb[14] 0.0119263
3 *81:32 0.12167
4 *81:30 0.12147
5 *81:28 0.0187382
6 *81:26 0.0187382
7 *81:24 0.0311137
8 *81:22 0.0430401
9 *81:22 *111:17 0
10 *81:22 *141:29 7.57101e-05
11 *81:22 *142:26 0
12 *81:24 *788:adc_data[5] 0.000544054
13 *81:28 *107:30 0.0497241
14 *9:20 *81:24 0
15 *75:20 io_oeb[21] 4.98422e-05
16 *80:43 io_oeb[21] 4.73953e-05
*RES
1 *788:analog_io_oeb[14] *81:22 10.6071 
2 *81:22 *81:24 98.0577 
3 *81:24 *81:26 3.41 
4 *81:26 *81:28 79.3203 
5 *81:28 *81:30 3.41 
6 *81:30 *81:32 386.87 
7 *81:32 io_oeb[21] 10.0012 
*END

*D_NET *82 0.408371
*CONN
*P io_oeb[22] O
*I *788:analog_io_oeb[15] O *D afe_wb
*CAP
1 io_oeb[22] 0.000179617
2 *788:analog_io_oeb[15] 0.000204169
3 *82:31 0.00449406
4 *82:27 0.15911
5 *82:25 0.161884
6 *82:9 0.0091114
7 *82:7 0.00222722
8 *82:7 *83:7 0
9 *82:9 *84:19 0.00124932
10 *82:9 *108:9 0.00242407
11 *82:9 *122:17 0
12 *82:9 *141:29 0
13 *82:25 *95:25 0.000341694
14 *82:25 *107:24 0.00388943
15 *74:23 *82:31 0.00357828
16 *75:16 *82:27 0
17 *75:20 *82:31 0.0288107
18 *76:24 *82:27 0
19 *78:29 *82:27 0
20 *78:33 *82:31 0.00388103
21 *80:9 *82:9 0.0037029
22 *80:37 *82:25 0.00101791
23 *80:37 *82:27 0.000361478
24 *80:43 *82:31 0.0219037
*RES
1 *788:analog_io_oeb[15] *82:7 3.85807 
2 *82:7 *82:9 73.5893 
3 *82:9 *82:25 19.042 
4 *82:25 *82:27 492.291 
5 *82:27 *82:31 48.3185 
6 *82:31 io_oeb[22] 6.50821 
*END

*D_NET *83 0.287824
*CONN
*P io_oeb[23] O
*I *788:analog_io_oeb[16] O *D afe_wb
*CAP
1 io_oeb[23] 0.00196137
2 *788:analog_io_oeb[16] 0.000498987
3 *83:9 0.138387
4 *83:7 0.136925
5 *83:7 *84:19 0
6 *83:9 *87:9 0.00930715
7 *83:9 *105:11 0
8 *83:9 *122:25 0
9 *83:9 *124:9 0
10 *83:9 *126:9 0.000243867
11 *69:9 *83:9 0
12 *71:9 *83:9 0
13 *72:9 *83:9 0
14 *74:9 *83:9 0
15 *74:17 io_oeb[23] 0
16 *74:23 io_oeb[23] 0.000500083
17 *82:7 *83:7 0
*RES
1 *788:analog_io_oeb[16] *83:7 4.36253 
2 *83:7 *83:9 2785.09 
3 *83:9 io_oeb[23] 16.6872 
*END

*D_NET *84 0.324173
*CONN
*P io_oeb[24] O
*I *788:analog_io_oeb[17] O *D afe_wb
*CAP
1 io_oeb[24] 0.00300359
2 *788:analog_io_oeb[17] 0.00246621
3 *84:33 0.144849
4 *84:31 0.14623
5 *84:19 0.0068511
6 *84:19 *89:23 0.000354027
7 *84:19 *95:25 0.00122506
8 *84:19 *108:33 6.98512e-06
9 *84:19 *111:15 2.71848e-05
10 *84:19 *129:9 0.0025436
11 *84:19 *141:29 4.6025e-06
12 *84:31 *95:25 0.000597049
13 *84:31 *141:29 0.00058654
14 *84:31 *142:26 0.000187156
15 *84:33 io_out[30] 0.000600489
16 *84:33 *129:17 0.00958848
17 *84:33 *142:30 0
18 *17:16 *84:33 0.00380346
19 *80:37 *84:19 0
20 *82:9 *84:19 0.00124932
21 *83:7 *84:19 0
*RES
1 *788:analog_io_oeb[17] *84:19 49.6774 
2 *84:19 *84:31 9.03819 
3 *84:31 *84:33 468.368 
4 *84:33 io_oeb[24] 12.0909 
*END

*D_NET *85 0.367921
*CONN
*P io_oeb[25] O
*I *788:analog_io_oeb[18] O *D afe_wb
*CAP
1 io_oeb[25] 0.00490391
2 *788:analog_io_oeb[18] 0.0138451
3 *85:26 0.12125
4 *85:24 0.130191
5 *85:24 *788:adc_data[2] 7.281e-05
6 *85:24 *86:24 0.002974
7 *85:24 *103:21 0.000225372
8 *85:24 *141:29 0.000163717
9 *85:24 *142:26 4.05479e-05
10 *85:24 *646:21 0.00213223
11 *85:26 *86:26 0.0911444
12 *70:16 *85:24 0.000978371
*RES
1 *788:analog_io_oeb[18] *85:24 38.0219 
2 *85:24 *85:26 393.794 
3 *85:26 io_oeb[25] 17.3361 
*END

*D_NET *86 0.290164
*CONN
*P io_oeb[26] O
*I *788:analog_io_oeb[19] O *D afe_wb
*CAP
1 io_oeb[26] 0.00531732
2 *788:analog_io_oeb[19] 0.00525874
3 *86:26 0.0915412
4 *86:24 0.0914826
5 *86:24 *108:33 0.00197719
6 *86:24 *141:29 0.00022669
7 *86:24 *142:26 0.000122642
8 *86:26 *788:adc_data[1] 0.000119135
9 *86:26 *659:21 0
10 *85:24 *86:24 0.002974
11 *85:26 *86:26 0.0911444
*RES
1 *788:analog_io_oeb[19] *86:24 9.9358 
2 *86:24 *86:26 373.446 
3 *86:26 io_oeb[26] 17.6244 
*END

*D_NET *87 0.316842
*CONN
*P io_oeb[27] O
*I *788:analog_io_oeb[20] O *D afe_wb
*CAP
1 io_oeb[27] 0.00133772
2 *788:analog_io_oeb[20] 0.000455157
3 *87:17 0.0594632
4 *87:15 0.0586116
5 *87:9 0.00307715
6 *87:7 0.00304625
7 *87:7 *88:7 0
8 *87:9 *124:9 0
9 *87:9 *126:9 0.0112527
10 *87:15 *89:23 0.000748497
11 *87:15 *95:25 0.000693541
12 *87:17 io_oeb[34] 3.16498e-06
13 *87:17 *89:25 0.109974
14 *87:17 *91:17 0.0335001
15 *87:17 *141:41 0.0251971
16 *87:17 *142:26 0.000175226
17 *83:9 *87:9 0.00930715
*RES
1 *788:analog_io_oeb[20] *87:7 4.29047 
2 *87:7 *87:9 140.375 
3 *87:9 *87:15 8.56057 
4 *87:15 *87:17 310.698 
5 *87:17 io_oeb[27] 6.93343 
*END

*D_NET *88 0.296888
*CONN
*P io_oeb[28] O
*I *788:analog_io_oeb[21] O *D afe_wb
*CAP
1 io_oeb[28] 0.00042504
2 *788:analog_io_oeb[21] 0.000332613
3 *88:29 0.0453577
4 *88:27 0.045072
5 *88:21 0.00568329
6 *88:19 0.00639636
7 *88:9 0.0038052
8 *88:7 0.00328547
9 io_oeb[28] *123:15 2.48409e-05
10 *88:7 *89:23 0
11 *88:9 *122:17 0.00921439
12 *88:9 *126:9 0.00156317
13 *88:19 *91:15 0.000125074
14 *88:19 *123:9 0.00151019
15 *88:19 *126:19 0.00149607
16 *88:19 *126:21 0.00099087
17 *88:19 *131:9 2.46867e-05
18 *88:19 *131:19 0.000638842
19 *88:19 *132:23 0.000520582
20 *88:21 *93:13 0.00104831
21 *88:21 *93:23 0.000878053
22 *88:21 *123:9 0.010605
23 *88:21 *126:21 0.0271678
24 *88:21 *131:19 0.00389897
25 *88:29 io_out[28] 0.00215833
26 *88:29 *122:25 0.0236173
27 *88:29 *124:9 0.0208746
28 *88:29 *124:19 0.00422741
29 *88:29 *125:9 0.0085758
30 *88:29 *126:29 0.00308382
31 *88:29 *127:17 0.031547
32 *88:29 *131:25 0.0248882
33 *69:9 *88:9 0.00340342
34 *71:9 *88:9 0.000522377
35 *72:9 *88:9 9.80665e-05
36 *78:17 *88:9 0.0017415
37 *80:9 *88:9 0.00208512
38 *87:7 *88:7 0
*RES
1 *788:analog_io_oeb[21] *88:7 4.07427 
2 *88:7 *88:9 151.911 
3 *88:9 *88:19 41.2707 
4 *88:19 *88:21 333.107 
5 *88:21 *88:27 7.04717 
6 *88:27 *88:29 204.698 
7 *88:29 io_oeb[28] 4.48317 
*END

*D_NET *89 0.237689
*CONN
*P io_oeb[29] O
*I *788:analog_io_oeb[22] O *D afe_wb
*CAP
1 io_oeb[29] 0.00136026
2 *788:analog_io_oeb[22] 0.00833692
3 *89:25 0.0483313
4 *89:23 0.055308
5 *89:23 *91:15 0
6 *89:23 *104:11 0.000165754
7 *89:23 *108:33 0.000122386
8 *89:23 *130:15 3.1388e-05
9 *89:23 *141:29 0.00835656
10 *89:23 *141:39 0.00437659
11 *89:23 *142:26 4.62133e-05
12 *74:9 *89:23 0.000177943
13 *84:19 *89:23 0.000354027
14 *87:15 *89:23 0.000748497
15 *87:17 *89:25 0.109974
16 *88:7 *89:23 0
*RES
1 *788:analog_io_oeb[22] *89:23 45.6464 
2 *89:23 *89:25 229.413 
3 *89:25 io_oeb[29] 6.75797 
*END

*D_NET *91 0.176097
*CONN
*P io_oeb[30] O
*I *788:analog_io_oeb[23] O *D afe_wb
*CAP
1 io_oeb[30] 0.0011632
2 *788:analog_io_oeb[23] 0.000866684
3 *91:17 0.0322351
4 *91:15 0.03163
5 *91:9 0.00268317
6 *91:7 0.00299176
7 *91:7 *92:7 0
8 *91:7 *108:33 0
9 *91:7 *141:29 1.47728e-05
10 *91:9 *92:9 0.012991
11 *91:9 *93:13 0.00298707
12 *91:9 *123:9 0.000161078
13 *91:9 *131:9 0.00158528
14 *91:9 *132:9 0.01046
15 *91:15 *130:15 0.00112328
16 *91:15 *132:23 0.000974394
17 *91:15 *141:39 3.79739e-05
18 *91:17 io_oeb[34] 0.011761
19 *91:17 *130:17 0.01454
20 *91:17 *132:25 0.013037
21 *10:12 *91:17 0.00120187
22 *80:37 *91:7 2.73594e-05
23 *87:17 *91:17 0.0335001
24 *88:19 *91:15 0.000125074
25 *89:23 *91:15 0
*RES
1 *788:analog_io_oeb[23] *91:7 5.2994 
2 *91:7 *91:9 162.839 
3 *91:9 *91:15 9.1371 
4 *91:15 *91:17 187.759 
5 *91:17 io_oeb[30] 6.18143 
*END

*D_NET *92 0.178706
*CONN
*P io_oeb[31] O
*I *788:analog_io_oeb[24] O *D afe_wb
*CAP
1 io_oeb[31] 0.000198535
2 *788:analog_io_oeb[24] 0.000910714
3 *92:25 0.016895
4 *92:23 0.0170779
5 *92:17 0.00589544
6 *92:15 0.00566826
7 *92:9 0.00222028
8 *92:7 0.00297665
9 *92:7 *93:11 0
10 *92:9 *93:13 0.0033378
11 *92:9 *123:9 0.0134889
12 *92:9 *132:9 0.000278538
13 *92:15 *130:15 1.23949e-05
14 *92:17 *93:13 0.0263965
15 *92:17 *93:23 9.65368e-05
16 *92:17 *94:9 0.0266758
17 *92:23 *93:23 0.000576622
18 *92:23 *94:9 0.000202416
19 *92:25 io_oeb[32] 0.0187767
20 *92:25 *93:23 0.00266707
21 *92:25 *94:9 0.00423387
22 *92:25 *126:29 0.0143302
23 *92:25 *127:17 0.00269944
24 *92:25 *131:25 9.91221e-05
25 *91:7 *92:7 0
26 *91:9 *92:9 0.012991
*RES
1 *788:analog_io_oeb[24] *92:7 5.37147 
2 *92:7 *92:9 165.268 
3 *92:9 *92:15 7.11923 
4 *92:15 *92:17 55.6574 
5 *92:17 *92:23 1.78287 
6 *92:23 *92:25 90.4938 
7 *92:25 io_oeb[31] 3.85963 
*END

*D_NET *93 0.168749
*CONN
*P io_oeb[32] O
*I *788:analog_io_oeb[25] O *D afe_wb
*CAP
1 io_oeb[32] 0.00494999
2 *788:analog_io_oeb[25] 0.00101374
3 *93:23 0.00653442
4 *93:13 0.0123372
5 *93:11 0.0117665
6 io_oeb[32] *123:9 0.00807326
7 io_oeb[32] *131:25 0.0100794
8 *93:13 *94:9 0.00151458
9 *93:13 *95:25 0.00536426
10 *93:13 *123:9 0.0142123
11 *93:13 *130:9 0.00119352
12 *93:13 *131:19 0.0112153
13 *93:13 *131:23 0.00184388
14 *93:13 *132:9 0.00217553
15 *93:13 *132:23 5.66423e-05
16 *93:13 *133:13 0.0115935
17 *93:13 *133:21 0
18 *93:23 *123:9 0.00228881
19 *93:23 *126:21 0.000203443
20 *93:23 *127:9 0.00024032
21 *93:23 *131:23 0.00170161
22 *93:23 *131:25 0.00362565
23 *88:21 *93:13 0.00104831
24 *88:21 *93:23 0.000878053
25 *91:9 *93:13 0.00298707
26 *92:7 *93:11 0
27 *92:9 *93:13 0.0033378
28 *92:17 *93:13 0.0263965
29 *92:17 *93:23 9.65368e-05
30 *92:23 *93:23 0.000576622
31 *92:25 io_oeb[32] 0.0187767
32 *92:25 *93:23 0.00266707
*RES
1 *788:analog_io_oeb[25] *93:11 5.62057 
2 *93:11 *93:13 85.0606 
3 *93:13 *93:23 12.8279 
4 *93:23 io_oeb[32] 43.324 
*END

*D_NET *94 0.0835988
*CONN
*P io_oeb[33] O
*I *788:analog_io_oeb[26] O *D afe_wb
*CAP
1 io_oeb[33] 0.000171894
2 *788:analog_io_oeb[26] 0.0011208
3 *94:9 0.0182972
4 *94:7 0.0192461
5 *94:7 *95:25 0
6 *94:9 *133:13 0.0121362
7 *92:17 *94:9 0.0266758
8 *92:23 *94:9 0.000202416
9 *92:25 *94:9 0.00423387
10 *93:13 *94:9 0.00151458
*RES
1 *788:analog_io_oeb[26] *94:7 5.76783 
2 *94:7 *94:9 96.5662 
3 *94:9 io_oeb[33] 3.85963 
*END

*D_NET *95 0.0696323
*CONN
*P io_oeb[34] O
*I *788:analog_io_oeb[27] O *D afe_wb
*CAP
1 io_oeb[34] 0.0037891
2 *788:analog_io_oeb[27] 0.00695283
3 *95:25 0.0107419
4 io_oeb[34] *130:17 4.66249e-05
5 io_oeb[34] *132:25 0.0117083
6 io_oeb[34] *141:39 0.000129449
7 io_oeb[34] *142:26 0.000203053
8 *95:25 *111:15 0.000643353
9 *95:25 *122:25 0.000593374
10 *95:25 *124:9 0.00156101
11 *95:25 *125:9 0.00053045
12 *95:25 *127:9 0.00292549
13 *95:25 *129:9 0.0035638
14 *95:25 *130:15 0
15 *95:25 *131:9 0.00349554
16 *95:25 *132:9 0.000128824
17 *95:25 *132:23 0.00253787
18 *95:25 *133:13 1.05941e-05
19 *95:25 *133:21 8.49279e-05
20 *95:25 *141:29 0
21 *82:25 *95:25 0.000341694
22 *84:19 *95:25 0.00122506
23 *84:31 *95:25 0.000597049
24 *87:15 *95:25 0.000693541
25 *87:17 io_oeb[34] 3.16498e-06
26 *91:17 io_oeb[34] 0.011761
27 *93:13 *95:25 0.00536426
28 *94:7 *95:25 0
*RES
1 *788:analog_io_oeb[27] *95:25 46.243 
2 *95:25 io_oeb[34] 31.4392 
*END

*D_NET *103 0.613194
*CONN
*P io_oeb[7] O
*I *788:analog_io_oeb[0] O *D afe_wb
*CAP
1 io_oeb[7] 0.000221487
2 *788:analog_io_oeb[0] 0.000880267
3 *103:25 0.0391766
4 *103:23 0.0389552
5 *103:21 0.195191
6 *103:19 0.196071
7 *103:19 *104:11 0
8 *103:19 *105:13 0.000197983
9 *103:19 *142:26 0.000240038
10 *103:21 *788:adc_data[0] 0.00074697
11 *103:21 *788:adc_data[10] 0.00107363
12 *103:21 *788:adc_data[1] 0.00127169
13 *103:21 *788:adc_data[2] 0.000950973
14 *103:21 *788:adc_data[3] 0.00139348
15 *103:21 *528:15 0.0400973
16 *103:21 *646:21 0.00342196
17 *103:21 *647:17 0.00341729
18 *103:21 *648:29 0.00570562
19 *103:21 *649:17 0.0102503
20 *103:21 *650:17 0.00581785
21 *103:21 *651:17 0.00977379
22 *103:21 *721:19 0.00127863
23 *103:21 *754:19 0.00106267
24 *103:21 *761:19 0.000481119
25 *103:21 *763:19 0.000584174
26 *103:25 *143:17 0.045186
27 *12:10 *103:25 0.00619213
28 *24:10 *103:25 0.00332973
29 *85:24 *103:21 0.000225372
*RES
1 *788:analog_io_oeb[0] *103:19 6.64603 
2 *103:19 *103:21 51.5836 
3 *103:21 *103:23 0.38 
4 *103:23 *103:25 174.655 
5 *103:25 io_oeb[7] 3.8659 
*END

*D_NET *104 0.684045
*CONN
*P io_oeb[8] O
*I *788:analog_io_oeb[1] O *D afe_wb
*CAP
1 io_oeb[8] 0.000114666
2 *788:analog_io_oeb[1] 0.000462147
3 *104:17 0.034305
4 *104:15 0.0341903
5 *104:13 0.106792
6 *104:11 0.107254
7 *104:13 *105:13 0.285407
8 *104:13 *528:15 0
9 *104:13 *647:17 0
10 *104:13 *648:29 0
11 *104:13 *649:17 0
12 *104:17 *105:17 0.0566496
13 *104:17 *143:17 0.0377646
14 *24:10 *104:17 0.0200655
15 *74:9 *104:11 0.000873728
16 *89:23 *104:11 0.000165754
17 *103:19 *104:11 0
*RES
1 *788:analog_io_oeb[1] *104:11 17.852 
2 *104:11 *104:13 454.86 
3 *104:13 *104:15 3.41 
4 *104:15 *104:17 1236.27 
5 *104:17 io_oeb[8] 3.61367 
*END

*D_NET *105 0.757753
*CONN
*P io_oeb[9] O
*I *788:analog_io_oeb[2] O *D afe_wb
*CAP
1 io_oeb[9] 3.64992e-05
2 *788:analog_io_oeb[2] 0.00112107
3 *105:17 0.0241617
4 *105:15 0.0241252
5 *105:13 0.10542
6 *105:11 0.106542
7 *105:11 *122:23 0.000411523
8 *105:11 *124:9 0.00134624
9 *105:11 *132:23 0.000317948
10 *105:13 *694:17 0
11 *105:13 *738:17 0
12 *105:17 *110:25 0.120316
13 *105:17 *143:17 0.0287052
14 *24:10 *105:17 0.00299498
15 *69:7 *105:11 0
16 *83:9 *105:11 0
17 *103:19 *105:13 0.000197983
18 *104:13 *105:13 0.285407
19 *104:17 *105:17 0.0566496
*RES
1 *788:analog_io_oeb[2] *105:11 24.7228 
2 *105:11 *105:13 456.085 
3 *105:13 *105:15 3.41 
4 *105:15 *105:17 1474.27 
5 *105:17 io_oeb[9] 3.46953 
*END

*D_NET *107 0.618444
*CONN
*P io_out[10] O
*I *788:analog_io_out[3] O *D afe_wb
*CAP
1 io_out[10] 0.000928254
2 *788:analog_io_out[3] 0.00865907
3 *107:50 0.0419623
4 *107:48 0.041034
5 *107:46 0.112818
6 *107:44 0.113277
7 *107:30 0.0306667
8 *107:28 0.0302078
9 *107:26 0.0246001
10 *107:24 0.0332592
11 *107:24 *108:33 0
12 *107:24 *111:15 0.00313728
13 *107:24 *142:26 0.000609066
14 *107:24 *143:11 9.5612e-05
15 *107:26 *659:23 0.00245077
16 *107:44 *787:61 8.22793e-06
17 *107:46 *789:resolution[0] 0
18 *107:50 *108:43 0.027768
19 *25:10 *107:50 0.0497796
20 *73:16 *107:26 0.000465544
21 *73:18 *107:26 0.0431035
22 *77:20 *107:26 0
23 *81:28 *107:30 0.0497241
24 *82:25 *107:24 0.00388943
*RES
1 *788:analog_io_out[3] *107:24 14.2722 
2 *107:24 *107:26 111.268 
3 *107:26 *107:28 3.41 
4 *107:28 *107:30 112.003 
5 *107:30 *107:44 24.3021 
6 *107:44 *107:46 321.464 
7 *107:46 *107:48 3.41 
8 *107:48 *107:50 1171.91 
9 *107:50 io_out[10] 5.84773 
*END

*D_NET *108 0.742354
*CONN
*P io_out[11] O
*I *788:analog_io_out[4] O *D afe_wb
*CAP
1 io_out[11] 0.000824726
2 *788:analog_io_out[4] 0.000136784
3 *108:43 0.069286
4 *108:41 0.0684613
5 *108:39 0.216889
6 *108:37 0.233571
7 *108:33 0.0227827
8 *108:9 0.00855027
9 *108:7 0.00258552
10 *108:9 *122:17 0
11 *108:9 *141:29 0.000114196
12 *108:33 *141:29 0.000677215
13 *108:33 *142:26 0.00026494
14 *108:37 *788:adc_data[2] 1.68422e-05
15 *108:43 *111:25 0.0789589
16 *14:18 *108:39 0.00657515
17 *80:37 *108:33 0.000360481
18 *82:9 *108:9 0.00242407
19 *84:19 *108:33 6.98512e-06
20 *86:24 *108:33 0.00197719
21 *89:23 *108:33 0.000122386
22 *91:7 *108:33 0
23 *107:24 *108:33 0
24 *107:50 *108:43 0.027768
*RES
1 *788:analog_io_out[4] *108:7 3.76407 
2 *108:7 *108:9 59.9286 
3 *108:9 *108:33 12.0514 
4 *108:33 *108:37 47.8343 
5 *108:37 *108:39 49.9612 
6 *108:39 *108:41 0.38 
7 *108:41 *108:43 305.691 
8 *108:43 io_out[11] 5.73963 
*END

*D_NET *109 0.927632
*CONN
*P io_out[12] O
*I *788:analog_io_out[5] O *D afe_wb
*CAP
1 io_out[12] 0.000137959
2 *788:analog_io_out[5] 0.00708296
3 *109:17 0.10287
4 *109:15 0.102732
5 *109:13 0.113377
6 *109:11 0.12046
7 *109:11 *110:7 0
8 *109:11 *111:15 0.000565383
9 *109:11 *112:9 0.00132641
10 *109:11 *116:9 0.00227097
11 *109:11 *119:9 0.00161443
12 *109:11 *124:9 0.00121815
13 *109:11 *125:9 0.000647627
14 *109:11 *127:9 0.00162808
15 *109:11 *129:9 0.0034674
16 *109:11 *131:9 0.00206846
17 *109:11 *132:9 0.00201806
18 *109:11 *133:13 0.00121928
19 *109:13 *110:13 0.0384979
20 *109:13 *112:19 0
21 *109:13 *113:19 1.53359e-05
22 *109:13 *114:13 0.200655
23 *109:13 *116:13 0.000142123
24 *109:13 *120:13 1.73516e-05
25 *109:13 *631:11 2.91117e-05
26 *109:13 *632:15 0.00906209
27 *109:17 *110:25 0.0579124
28 *109:17 *143:17 0.147752
29 *24:10 *109:17 0.00884353
*RES
1 *788:analog_io_out[5] *109:11 34.4983 
2 *109:11 *109:13 456.373 
3 *109:13 *109:15 3.41 
4 *109:15 *109:17 434.916 
5 *109:17 io_out[12] 3.9223 
*END

*D_NET *110 0.862667
*CONN
*P io_out[13] O
*I *788:analog_io_out[6] O *D afe_wb
*CAP
1 io_out[13] 0.00129174
2 *788:analog_io_out[6] 0.000112448
3 *110:25 0.105144
4 *110:23 0.103852
5 *110:21 0.0757437
6 *110:19 0.0758189
7 *110:13 0.00963308
8 *110:11 0.00955793
9 *110:9 0.00480509
10 *110:7 0.00491754
11 *110:7 *111:15 0
12 *110:9 *112:19 0.000215715
13 *110:9 *113:9 0.00990055
14 *110:9 *115:9 5.22377e-05
15 *110:9 *122:17 0
16 *110:9 *143:11 0.00020996
17 *110:9 *542:13 5.66838e-05
18 *110:13 *788:wbs_stb_i 0.000691338
19 *110:13 *788:wbs_we_i 0.000394731
20 *110:13 *113:19 0.00831021
21 *110:13 *120:13 0.00774604
22 *110:13 *542:11 0.000688868
23 *110:13 *624:11 0.00165199
24 *110:13 *628:11 0.00123864
25 *110:13 *631:11 0.00104151
26 *110:19 *632:15 5.45025e-05
27 *110:21 *112:21 0.219645
28 *110:21 *628:11 0.00316645
29 *24:10 *110:25 0
30 *105:17 *110:25 0.120316
31 *109:11 *110:7 0
32 *109:13 *110:13 0.0384979
33 *109:17 *110:25 0.0579124
*RES
1 *788:analog_io_out[6] *110:7 3.71393 
2 *110:7 *110:9 141.589 
3 *110:9 *110:11 3.41 
4 *110:11 *110:13 61.7361 
5 *110:13 *110:19 9.40107 
6 *110:19 *110:21 2241.8 
7 *110:21 *110:23 4.5 
8 *110:23 *110:25 2689.08 
9 *110:25 io_out[13] 29.5588 
*END

*D_NET *111 0.711626
*CONN
*P io_out[14] O
*I *788:analog_io_out[7] O *D afe_wb
*CAP
1 io_out[14] 0.00089796
2 *788:analog_io_out[7] 0.0135761
3 *111:25 0.110286
4 *111:23 0.109388
5 *111:21 0.135567
6 *111:19 0.135567
7 *111:17 0.0109572
8 *111:15 0.0245333
9 *111:15 *112:7 0
10 *111:15 *123:9 0.00121694
11 *111:15 *125:9 0.000599901
12 *111:15 *127:9 0.000636591
13 *111:15 *129:9 0
14 *111:15 *131:9 0.000688824
15 *111:15 *132:9 0.00118913
16 *111:15 *133:13 0.00269263
17 *111:17 *121:17 0.00505093
18 *111:17 *652:25 0.00924366
19 *111:21 *653:14 0.0179325
20 *111:21 *656:20 5.11642e-05
21 *111:21 *658:14 0
22 *25:10 *111:25 0.0476878
23 *77:20 *111:21 0
24 *80:37 *111:15 0.000531057
25 *81:22 *111:17 0
26 *84:19 *111:15 2.71848e-05
27 *95:25 *111:15 0.000643353
28 *107:24 *111:15 0.00313728
29 *108:43 *111:25 0.0789589
30 *109:11 *111:15 0.000565383
31 *110:7 *111:15 0
*RES
1 *788:analog_io_out[7] *111:15 19.4544 
2 *111:15 *111:17 48.0935 
3 *111:17 *111:19 3.41 
4 *111:19 *111:21 429.997 
5 *111:21 *111:23 3.41 
6 *111:23 *111:25 435.768 
7 *111:25 io_out[14] 6.0279 
*END

*D_NET *112 0.709022
*CONN
*P io_out[15] O
*I *788:analog_io_out[8] O *D afe_wb
*CAP
1 io_out[15] 0.147626
2 *788:analog_io_out[8] 0.000636359
3 *112:23 0.147626
4 *112:21 0.0857838
5 *112:19 0.0864089
6 *112:9 0.00466324
7 *112:7 0.00467446
8 *112:7 *113:7 0
9 *112:9 *119:9 0.00265636
10 *112:9 *120:9 0
11 *112:9 *121:9 0
12 *112:9 *124:9 0.005444
13 *112:9 *126:9 0
14 *112:19 *120:13 7.5899e-05
15 *112:19 *121:15 0
16 *112:21 *788:wbs_we_i 0.000264176
17 *112:21 *542:11 0.000260641
18 *112:21 *628:11 0.00171564
19 *109:11 *112:9 0.00132641
20 *109:13 *112:19 0
21 *110:9 *112:19 0.000215715
22 *110:21 *112:21 0.219645
23 *111:15 *112:7 0
*RES
1 *788:analog_io_out[8] *112:7 4.79493 
2 *112:7 *112:9 125.196 
3 *112:9 *112:19 15.2254 
4 *112:19 *112:21 2413.89 
5 *112:21 *112:23 4.5 
6 *112:23 io_out[15] 3038.96 
*END

*D_NET *113 0.717639
*CONN
*P io_out[16] O
*I *788:analog_io_out[9] O *D afe_wb
*CAP
1 io_out[16] 0.000186784
2 *788:analog_io_out[9] 0.000156631
3 *113:23 0.167046
4 *113:21 0.166859
5 *113:19 0.166837
6 *113:9 0.168809
7 *113:7 0.00212892
8 *113:7 *114:7 0
9 *113:9 *114:9 0.000258922
10 *113:9 *115:9 0.00878221
11 *113:9 *143:11 0.00020996
12 *113:19 *788:wbs_cyc_i 0.000160335
13 *113:19 *120:13 0.00885258
14 *113:19 *542:11 0.000311114
15 *113:19 *624:11 0.00291483
16 *113:19 *628:11 0.00214353
17 *113:19 *631:11 0.0018652
18 *113:19 *632:15 0.00189098
19 *109:13 *113:19 1.53359e-05
20 *110:9 *113:9 0.00990055
21 *110:13 *113:19 0.00831021
22 *112:7 *113:7 0
*RES
1 *788:analog_io_out[9] *113:7 3.786 
2 *113:7 *113:9 122.161 
3 *113:9 *113:19 49.706 
4 *113:19 *113:21 0.38 
5 *113:21 *113:23 532.927 
6 *113:23 io_out[16] 9.46617 
*END

*D_NET *114 0.708384
*CONN
*P io_out[17] O
*I *788:analog_io_out[10] O *D afe_wb
*CAP
1 io_out[17] 0.000882444
2 *788:analog_io_out[10] 0.000238977
3 *114:17 0.148454
4 *114:15 0.147572
5 *114:13 0.050129
6 *114:11 0.050129
7 *114:9 0.00206637
8 *114:7 0.00230535
9 *114:7 *115:7 0
10 *114:9 *115:9 0.00897479
11 *114:9 *118:9 0.0080072
12 *114:9 *122:17 0.000504604
13 *114:13 *115:13 0.087092
14 *114:13 *116:13 1.28217e-05
15 *74:23 io_out[17] 0.000217575
16 *75:20 io_out[17] 0.000883197
17 *109:13 *114:13 0.200655
18 *113:7 *114:7 0
19 *113:9 *114:9 0.000258922
*RES
1 *788:analog_io_out[10] *114:7 3.93013 
2 *114:7 *114:9 118.518 
3 *114:9 *114:11 3.41 
4 *114:11 *114:13 319.735 
5 *114:13 *114:15 3.41 
6 *114:15 *114:17 3037.05 
7 *114:17 io_out[17] 14.2369 
*END

*D_NET *115 0.673299
*CONN
*P io_out[18] O
*I *788:analog_io_out[11] O *D afe_wb
*CAP
1 io_out[18] 0.00279371
2 *788:analog_io_out[11] 0.000200814
3 *115:17 0.170178
4 *115:15 0.167384
5 *115:13 0.0422729
6 *115:11 0.0422729
7 *115:9 0.0019314
8 *115:7 0.00213222
9 *115:7 *116:7 0
10 *115:9 *118:9 5.22377e-05
11 *115:9 *542:13 0
12 *115:13 *116:13 0.138229
13 *74:23 io_out[18] 0.000950993
14 *75:20 io_out[18] 0
15 *110:9 *115:9 5.22377e-05
16 *113:9 *115:9 0.00878221
17 *114:7 *115:7 0
18 *114:9 *115:9 0.00897479
19 *114:13 *115:13 0.087092
*RES
1 *788:analog_io_out[11] *115:7 3.85807 
2 *115:7 *115:9 113.661 
3 *115:9 *115:11 3.41 
4 *115:11 *115:13 263.343 
5 *115:13 *115:15 3.41 
6 *115:15 *115:17 533.992 
7 *115:17 io_out[18] 17.0344 
*END

*D_NET *116 0.624009
*CONN
*P io_out[19] O
*I *788:analog_io_out[12] O *D afe_wb
*CAP
1 io_out[19] 0.141135
2 *788:analog_io_out[12] 0.000902732
3 *116:15 0.141135
4 *116:13 0.0324097
5 *116:11 0.0324097
6 *116:9 0.00264393
7 *116:7 0.00354666
8 io_out[19] *681:13 0.0162784
9 *116:7 *118:7 0
10 *116:9 *119:9 0
11 *116:9 *123:9 0.00166949
12 *116:9 *130:9 0.00119847
13 *116:9 *132:9 0.00694888
14 *116:13 *118:13 0.102778
15 *116:13 *119:13 0.000297535
16 *109:11 *116:9 0.00227097
17 *109:13 *116:13 0.000142123
18 *114:13 *116:13 1.28217e-05
19 *115:7 *116:7 0
20 *115:13 *116:13 0.138229
*RES
1 *788:analog_io_out[12] *116:7 5.2994 
2 *116:7 *116:9 108.196 
3 *116:9 *116:11 3.41 
4 *116:11 *116:13 221.868 
5 *116:13 *116:15 3.41 
6 *116:15 io_out[19] 3043.67 
*END

*D_NET *118 0.622732
*CONN
*P io_out[20] O
*I *788:analog_io_out[13] O *D afe_wb
*CAP
1 io_out[20] 0.000737555
2 *788:analog_io_out[13] 0.00028918
3 *118:17 0.155407
4 *118:15 0.15467
5 *118:13 0.0249888
6 *118:11 0.0249888
7 *118:9 0.00186864
8 *118:7 0.00215782
9 *118:7 *119:7 0
10 *118:9 *120:9 0.00674813
11 *118:9 *122:17 0.000518625
12 *118:9 *542:13 0
13 *118:13 *119:13 0.0715373
14 *118:17 *714:13 0.00115405
15 *118:17 *731:13 0.0602695
16 *74:23 io_out[20] 0.000722869
17 *75:20 io_out[20] 0.0021183
18 *78:33 io_out[20] 0.00371796
19 *114:9 *118:9 0.0080072
20 *115:9 *118:9 5.22377e-05
21 *116:7 *118:7 0
22 *116:13 *118:13 0.102778
*RES
1 *788:analog_io_out[13] *118:7 4.0022 
2 *118:7 *118:9 102.732 
3 *118:9 *118:11 3.41 
4 *118:11 *118:13 164.035 
5 *118:13 *118:15 3.41 
6 *118:15 *118:17 533.779 
7 *118:17 io_out[20] 15.0874 
*END

*D_NET *119 0.489377
*CONN
*P io_out[21] O
*I *788:analog_io_out[14] O *D afe_wb
*CAP
1 io_out[21] 0.00135839
2 *788:analog_io_out[14] 0.00074804
3 *119:17 0.170481
4 *119:15 0.169122
5 *119:13 0.026663
6 *119:11 0.026663
7 *119:9 0.00222131
8 *119:7 0.00296935
9 *119:7 *120:7 0
10 *119:9 *124:9 0.00248003
11 *119:9 *125:9 0.00297744
12 *119:9 *127:9 0.000560596
13 *119:9 *131:9 0.000572031
14 *119:9 *132:9 0
15 *119:13 *788:wbs_adr_i[2] 0
16 *119:13 *788:wbs_adr_i[3] 0
17 *119:13 *788:wbs_adr_i[5] 0
18 *119:13 *788:wbs_dat_i[14] 0
19 *119:13 *788:wbs_dat_i[17] 0
20 *119:13 *788:wbs_dat_i[18] 0
21 *119:13 *788:wbs_dat_i[19] 0
22 *119:13 *788:wbs_dat_i[21] 0
23 *119:13 *788:wbs_dat_i[22] 0
24 *119:13 *788:wbs_dat_i[23] 0
25 *119:13 *788:wbs_dat_i[24] 0
26 *119:13 *788:wbs_dat_i[25] 0
27 *119:13 *788:wbs_dat_i[2] 0
28 *119:13 *788:wbs_dat_i[30] 0
29 *119:13 *788:wbs_dat_i[3] 0
30 *119:13 *788:wbs_dat_i[5] 0
31 *119:13 *788:wbs_dat_i[6] 0
32 *119:13 *788:wbs_dat_i[7] 0
33 *119:13 *788:wbs_dat_i[8] 0
34 *119:13 *634:11 0
35 *119:13 *638:11 0.00315112
36 *119:17 *698:13 0
37 *74:23 io_out[21] 0.000319005
38 *76:30 io_out[21] 0.00298533
39 *109:11 *119:9 0.00161443
40 *112:9 *119:9 0.00265636
41 *116:9 *119:9 0
42 *116:13 *119:13 0.000297535
43 *118:7 *119:7 0
44 *118:13 *119:13 0.0715373
*RES
1 *788:analog_io_out[14] *119:7 4.93907 
2 *119:7 *119:9 97.2679 
3 *119:9 *119:11 3.41 
4 *119:11 *119:13 115.246 
5 *119:13 *119:15 3.41 
6 *119:15 *119:17 533.459 
7 *119:17 io_out[21] 16.4349 
*END

*D_NET *120 0.485389
*CONN
*P io_out[22] O
*I *788:analog_io_out[15] O *D afe_wb
*CAP
1 io_out[22] 0.000434663
2 *788:analog_io_out[15] 0.000321345
3 *120:17 0.17699
4 *120:15 0.176555
5 *120:13 0.022334
6 *120:11 0.022334
7 *120:9 0.0015195
8 *120:7 0.00184084
9 *120:7 *121:7 0
10 *120:7 *122:15 4.63806e-05
11 *120:9 *121:9 0.00568542
12 *120:9 *122:17 0.000203548
13 *120:9 *126:9 0.000151336
14 *120:13 *788:wbs_cyc_i 0.0012167
15 *120:13 *788:wbs_stb_i 0.000327943
16 *120:13 *788:wbs_we_i 0.000240038
17 *120:13 *542:11 0.000349165
18 *120:13 *624:11 0.0100331
19 *120:17 *671:13 0.0153432
20 *120:17 *694:13 0.00043421
21 *120:17 *699:13 0.00791001
22 *120:17 *721:13 0.000397833
23 *120:17 *732:13 0.00747341
24 *120:17 *736:15 0
25 *120:17 *754:13 0.000445026
26 *120:17 *756:13 0.00614342
27 *74:23 io_out[22] 0.000178973
28 *75:20 io_out[22] 0.00152154
29 *80:43 io_out[22] 0.00151909
30 *109:13 *120:13 1.73516e-05
31 *110:13 *120:13 0.00774604
32 *112:9 *120:9 0
33 *112:19 *120:13 7.5899e-05
34 *113:19 *120:13 0.00885258
35 *118:9 *120:9 0.00674813
36 *119:7 *120:7 0
*RES
1 *788:analog_io_out[15] *120:7 4.07427 
2 *120:7 *120:9 84.5179 
3 *120:9 *120:11 3.41 
4 *120:11 *120:13 65.8078 
5 *120:13 *120:15 3.41 
6 *120:15 *120:17 532.607 
7 *120:17 io_out[22] 12.3074 
*END

*D_NET *121 0.382455
*CONN
*P io_out[23] O
*I *788:analog_io_out[16] O *D afe_wb
*CAP
1 io_out[23] 0.00131751
2 *788:analog_io_out[16] 0.000400673
3 *121:17 0.158842
4 *121:15 0.162481
5 *121:9 0.00679142
6 *121:7 0.00223552
7 *121:7 *122:15 0
8 *121:9 *126:9 0.0024382
9 *121:15 *133:11 0
10 *121:15 *143:13 0.0141543
11 *121:17 *652:25 0.0212261
12 *74:23 io_out[23] 0.00064946
13 *77:24 *121:17 0
14 *78:33 io_out[23] 0.0011831
15 *80:39 *121:17 0
16 *111:17 *121:17 0.00505093
17 *112:9 *121:9 0
18 *112:19 *121:15 0
19 *120:7 *121:7 0
20 *120:9 *121:9 0.00568542
*RES
1 *788:analog_io_out[16] *121:7 4.14633 
2 *121:7 *121:9 71.1607 
3 *121:9 *121:15 29.3158 
4 *121:15 *121:17 531.861 
5 *121:17 io_out[23] 14.1518 
*END

*D_NET *122 0.48598
*CONN
*P io_out[24] O
*I *788:analog_io_out[17] O *D afe_wb
*CAP
1 io_out[24] 0.000207661
2 *788:analog_io_out[17] 0.000794921
3 *122:41 0.02347
4 *122:39 0.0239727
5 *122:33 0.00805141
6 *122:31 0.00759263
7 *122:25 0.0363929
8 *122:23 0.0364252
9 *122:17 0.00606078
10 *122:15 0.00657174
11 *122:15 *143:11 0.000795408
12 *122:17 *126:9 0.0200999
13 *122:23 *132:23 2.68104e-05
14 *122:23 *133:21 6.92046e-05
15 *122:25 *123:9 0
16 *122:25 *124:9 0.123802
17 *122:25 *124:19 0.00112239
18 *122:25 *125:9 0.0714807
19 *122:25 *131:19 0.00427404
20 *122:25 *131:23 0.00174925
21 *122:25 *131:25 0.000536433
22 *122:33 *123:17 0.026223
23 *122:33 *123:23 0.00100198
24 *122:33 *125:25 0.0193416
25 *122:39 *123:23 0.00185825
26 *122:41 *123:23 0.000103191
27 *122:41 *123:25 0.028114
28 *11:10 *122:41 0.000118787
29 *13:12 *122:39 0.00034625
30 *80:9 *122:17 0.000267651
31 *82:9 *122:17 0
32 *83:9 *122:25 0
33 *88:9 *122:17 0.00921439
34 *88:29 *122:25 0.0236173
35 *95:25 *122:25 0.000593374
36 *105:11 *122:23 0.000411523
37 *108:9 *122:17 0
38 *110:9 *122:17 0
39 *114:9 *122:17 0.000504604
40 *118:9 *122:17 0.000518625
41 *120:7 *122:15 4.63806e-05
42 *120:9 *122:17 0.000203548
43 *121:7 *122:15 0
*RES
1 *788:analog_io_out[17] *122:15 12.6897 
2 *122:15 *122:17 250.875 
3 *122:17 *122:23 7.65973 
4 *122:23 *122:25 1633.95 
5 *122:25 *122:31 7.4075 
6 *122:31 *122:33 58.5181 
7 *122:33 *122:39 4.1736 
8 *122:39 *122:41 100.082 
9 *122:41 io_out[24] 4.05077 
*END

*D_NET *123 0.405191
*CONN
*P io_out[25] O
*I *788:analog_io_out[18] O *D afe_wb
*CAP
1 io_out[25] 0.000290291
2 *788:analog_io_out[18] 0.000974588
3 *123:25 0.0107048
4 *123:23 0.0112822
5 *123:17 0.00762057
6 *123:15 0.00682463
7 *123:9 0.0736699
8 *123:7 0.0745727
9 *123:7 *124:7 0
10 *123:9 io_out[28] 0.0018415
11 *123:9 *125:9 0
12 *123:9 *125:17 0.00047387
13 *123:9 *125:23 0.000277025
14 *123:9 *126:21 0
15 *123:9 *126:29 0.0286579
16 *123:9 *127:17 0.00226773
17 *123:9 *130:9 0.0246223
18 *123:9 *131:9 0
19 *123:9 *132:9 0.00306561
20 *123:9 *133:13 0.00124879
21 *123:17 io_out[26] 0.000937004
22 *123:17 io_out[28] 0.00511058
23 *123:17 *124:19 0.0299783
24 *123:17 *125:25 0.000251402
25 *123:23 io_out[26] 0.00391142
26 *123:25 io_out[26] 0.00605717
27 io_oeb[28] *123:15 2.48409e-05
28 io_oeb[32] *123:9 0.00807326
29 *88:19 *123:9 0.00151019
30 *88:21 *123:9 0.010605
31 *91:9 *123:9 0.000161078
32 *92:9 *123:9 0.0134889
33 *93:13 *123:9 0.0142123
34 *93:23 *123:9 0.00228881
35 *111:15 *123:9 0.00121694
36 *116:9 *123:9 0.00166949
37 *122:25 *123:9 0
38 *122:33 *123:17 0.026223
39 *122:33 *123:23 0.00100198
40 *122:39 *123:23 0.00185825
41 *122:41 *123:23 0.000103191
42 *122:41 *123:25 0.028114
*RES
1 *788:analog_io_out[18] *123:7 5.44353 
2 *123:7 *123:9 1833.7 
3 *123:9 *123:15 6.9751 
4 *123:15 *123:17 66.5238 
5 *123:17 *123:23 8.41927 
6 *123:23 *123:25 58.7469 
7 *123:25 io_out[25] 4.1949 
*END

*D_NET *124 0.370338
*CONN
*P io_out[26] O
*I *788:analog_io_out[19] O *D afe_wb
*CAP
1 io_out[26] 0.00696264
2 *788:analog_io_out[19] 0.000707188
3 *124:19 0.0209234
4 *124:17 0.014268
5 *124:9 0.0541177
6 *124:7 0.0545178
7 *124:7 *125:7 0
8 *124:9 *125:9 0.0110381
9 *124:9 *126:9 0
10 *124:9 *131:23 0.000359797
11 *124:9 *132:23 0.00053045
12 *124:9 *133:21 0.00111259
13 *124:19 io_out[28] 0.00284095
14 *83:9 *124:9 0
15 *87:9 *124:9 0
16 *88:29 *124:9 0.0208746
17 *88:29 *124:19 0.00422741
18 *95:25 *124:9 0.00156101
19 *105:11 *124:9 0.00134624
20 *109:11 *124:9 0.00121815
21 *112:9 *124:9 0.005444
22 *119:9 *124:9 0.00248003
23 *122:25 *124:9 0.123802
24 *122:25 *124:19 0.00112239
25 *123:7 *124:7 0
26 *123:17 io_out[26] 0.000937004
27 *123:17 *124:19 0.0299783
28 *123:23 io_out[26] 0.00391142
29 *123:25 io_out[26] 0.00605717
*RES
1 *788:analog_io_out[19] *124:7 4.867 
2 *124:7 *124:9 1789.98 
3 *124:9 *124:17 7.45137 
4 *124:17 *124:19 71.1925 
5 *124:19 io_out[26] 34.4504 
*END

*D_NET *125 0.369533
*CONN
*P io_out[27] O
*I *788:analog_io_out[20] O *D afe_wb
*CAP
1 io_out[27] 4.21432e-05
2 *788:analog_io_out[20] 0.000762806
3 *125:25 0.0117146
4 *125:23 0.0122706
5 *125:17 0.0213155
6 *125:15 0.0210226
7 *125:9 0.0186694
8 *125:7 0.0191269
9 *125:7 *126:7 0
10 *125:9 *126:21 0.00265026
11 *125:9 *127:9 0.0751105
12 *125:9 *129:9 0.00202846
13 *125:9 *131:19 0.00462219
14 *125:9 *131:23 0.00154911
15 *125:9 *131:25 0.000574718
16 *125:17 io_out[28] 0.000428897
17 *125:17 *126:29 0.0518985
18 *125:23 io_out[28] 0.000772515
19 *125:25 io_out[28] 0.00861693
20 *15:12 *125:23 0.000162662
21 *88:29 *125:9 0.0085758
22 *95:25 *125:9 0.00053045
23 *109:11 *125:9 0.000647627
24 *111:15 *125:9 0.000599901
25 *119:9 *125:9 0.00297744
26 *122:25 *125:9 0.0714807
27 *122:33 *125:25 0.0193416
28 *123:9 *125:9 0
29 *123:9 *125:17 0.00047387
30 *123:9 *125:23 0.000277025
31 *123:17 *125:25 0.000251402
32 *124:7 *125:7 0
33 *124:9 *125:9 0.0110381
*RES
1 *788:analog_io_out[20] *125:7 5.01113 
2 *125:7 *125:9 1154.91 
3 *125:9 *125:15 7.47957 
4 *125:15 *125:17 110.522 
5 *125:17 *125:23 2.31553 
6 *125:23 *125:25 61.1971 
7 *125:25 io_out[27] 3.54003 
*END

*D_NET *126 0.387887
*CONN
*P io_out[28] O
*I *788:analog_io_out[21] O *D afe_wb
*CAP
1 io_out[28] 0.00316797
2 *788:analog_io_out[21] 0.000410159
3 *126:29 0.017283
4 *126:27 0.0142654
5 *126:21 0.0138422
6 *126:19 0.0141987
7 *126:9 0.00872011
8 *126:7 0.00862342
9 *126:7 *127:7 0
10 *126:19 *127:9 0.000445485
11 *126:19 *131:9 5.7986e-05
12 *126:19 *131:15 5.00194e-05
13 *126:19 *131:19 0.000174547
14 *126:21 *127:9 0.0484928
15 *126:21 *131:19 0.00429195
16 *126:21 *131:23 0.00148344
17 *126:21 *131:25 0.00589355
18 *126:27 io_out[32] 6.14258e-05
19 *126:29 *127:17 0.0584134
20 *69:9 *126:9 1.37595e-05
21 *83:9 *126:9 0.000243867
22 *87:9 *126:9 0.0112527
23 *88:9 *126:9 0.00156317
24 *88:19 *126:19 0.00149607
25 *88:19 *126:21 0.00099087
26 *88:21 *126:21 0.0271678
27 *88:29 io_out[28] 0.00215833
28 *88:29 *126:29 0.00308382
29 *92:25 *126:29 0.0143302
30 *93:23 *126:21 0.000203443
31 *112:9 *126:9 0
32 *120:9 *126:9 0.000151336
33 *121:9 *126:9 0.0024382
34 *122:17 *126:9 0.0200999
35 *123:9 io_out[28] 0.0018415
36 *123:9 *126:21 0
37 *123:9 *126:29 0.0286579
38 *123:17 io_out[28] 0.00511058
39 *124:9 *126:9 0
40 *124:19 io_out[28] 0.00284095
41 *125:7 *126:7 0
42 *125:9 *126:21 0.00265026
43 *125:17 io_out[28] 0.000428897
44 *125:17 *126:29 0.0518985
45 *125:23 io_out[28] 0.000772515
46 *125:25 io_out[28] 0.00861693
*RES
1 *788:analog_io_out[21] *126:7 4.2184 
2 *126:7 *126:9 322.518 
3 *126:9 *126:19 18.8581 
4 *126:19 *126:21 652.196 
5 *126:21 *126:27 7.1913 
6 *126:27 *126:29 139.129 
7 *126:29 io_out[28] 28.5033 
*END

*D_NET *127 0.325096
*CONN
*P io_out[29] O
*I *788:analog_io_out[22] O *D afe_wb
*CAP
1 io_out[29] 0.000368065
2 *788:analog_io_out[22] 0.0007993
3 *127:17 0.0155822
4 *127:15 0.0153742
5 *127:9 0.0119085
6 *127:7 0.0125478
7 *127:7 *129:7 0
8 *127:9 *131:9 0.0268266
9 *127:9 *131:19 0.00499142
10 *127:9 *131:23 0.00133427
11 *127:9 *131:25 0.00546772
12 *127:9 *133:13 0.000147301
13 *127:17 *131:25 0.00478137
14 *88:29 *127:17 0.031547
15 *92:25 *127:17 0.00269944
16 *93:23 *127:9 0.00024032
17 *95:25 *127:9 0.00292549
18 *109:11 *127:9 0.00162808
19 *111:15 *127:9 0.000636591
20 *119:9 *127:9 0.000560596
21 *123:9 *127:17 0.00226773
22 *125:9 *127:9 0.0751105
23 *126:7 *127:7 0
24 *126:19 *127:9 0.000445485
25 *126:21 *127:9 0.0484928
26 *126:29 *127:17 0.0584134
*RES
1 *788:analog_io_out[22] *127:7 5.0832 
2 *127:7 *127:9 933.304 
3 *127:9 *127:15 7.11923 
4 *127:15 *127:17 132.042 
5 *127:17 io_out[29] 4.1949 
*END

*D_NET *129 0.192237
*CONN
*P io_out[30] O
*I *788:analog_io_out[23] O *D afe_wb
*CAP
1 io_out[30] 0.0124908
2 *788:analog_io_out[23] 0.000594055
3 *129:17 0.0621847
4 *129:15 0.0532023
5 *129:9 0.0205785
6 *129:7 0.0176642
7 *129:7 *130:7 0
8 *17:16 io_out[30] 0.00236756
9 *17:16 *129:17 0.000379152
10 *70:14 *129:15 0.000983291
11 *84:19 *129:9 0.0025436
12 *84:33 io_out[30] 0.000600489
13 *84:33 *129:17 0.00958848
14 *95:25 *129:9 0.0035638
15 *109:11 *129:9 0.0034674
16 *111:15 *129:9 0
17 *125:9 *129:9 0.00202846
18 *127:7 *129:7 0
*RES
1 *788:analog_io_out[23] *129:7 4.61477 
2 *129:7 *129:9 51.0765 
3 *129:9 *129:15 1.7062 
4 *129:15 *129:17 172.224 
5 *129:17 io_out[30] 46.2568 
*END

*D_NET *130 0.188808
*CONN
*P io_out[31] O
*I *788:analog_io_out[24] O *D afe_wb
*CAP
1 io_out[31] 0.00119849
2 *788:analog_io_out[24] 0.000952312
3 *130:17 0.0369719
4 *130:15 0.0365449
5 *130:9 0.0112439
6 *130:7 0.0114248
7 *130:7 *131:7 0
8 *130:9 *133:13 0.0115044
9 *130:17 *132:25 0.0359339
10 *130:17 *141:39 0.000265906
11 io_oeb[34] *130:17 4.66249e-05
12 *89:23 *130:15 3.1388e-05
13 *91:15 *130:15 0.00112328
14 *91:17 *130:17 0.01454
15 *92:15 *130:15 1.23949e-05
16 *93:13 *130:9 0.00119352
17 *95:25 *130:15 0
18 *116:9 *130:9 0.00119847
19 *123:9 *130:9 0.0246223
20 *129:7 *130:7 0
*RES
1 *788:analog_io_out[24] *130:7 5.5156 
2 *130:7 *130:9 338.304 
3 *130:9 *130:15 8.9209 
4 *130:15 *130:17 156.864 
5 *130:17 io_out[31] 6.06863 
*END

*D_NET *131 0.213697
*CONN
*P io_out[32] O
*I *788:analog_io_out[25] O *D afe_wb
*CAP
1 io_out[32] 0.000238507
2 *788:analog_io_out[25] 0.000789398
3 *131:25 0.00724261
4 *131:23 0.0105216
5 *131:19 0.0106753
6 *131:15 0.00719116
7 *131:9 0.00461727
8 *131:7 0.00537327
9 *131:7 *132:7 0
10 *131:9 *132:9 0.025301
11 *131:9 *133:13 0.000147301
12 *131:19 *133:21 0.00609384
13 io_oeb[32] *131:25 0.0100794
14 *88:19 *131:9 2.46867e-05
15 *88:19 *131:19 0.000638842
16 *88:21 *131:19 0.00389897
17 *88:29 *131:25 0.0248882
18 *91:9 *131:9 0.00158528
19 *92:25 *131:25 9.91221e-05
20 *93:13 *131:19 0.0112153
21 *93:13 *131:23 0.00184388
22 *93:23 *131:23 0.00170161
23 *93:23 *131:25 0.00362565
24 *95:25 *131:9 0.00349554
25 *109:11 *131:9 0.00206846
26 *111:15 *131:9 0.000688824
27 *119:9 *131:9 0.000572031
28 *122:25 *131:19 0.00427404
29 *122:25 *131:23 0.00174925
30 *122:25 *131:25 0.000536433
31 *123:9 *131:9 0
32 *124:9 *131:23 0.000359797
33 *125:9 *131:19 0.00462219
34 *125:9 *131:23 0.00154911
35 *125:9 *131:25 0.000574718
36 *126:19 *131:9 5.7986e-05
37 *126:19 *131:15 5.00194e-05
38 *126:19 *131:19 0.000174547
39 *126:21 *131:19 0.00429195
40 *126:21 *131:23 0.00148344
41 *126:21 *131:25 0.00589355
42 *126:27 io_out[32] 6.14258e-05
43 *127:9 *131:9 0.0268266
44 *127:9 *131:19 0.00499142
45 *127:9 *131:23 0.00133427
46 *127:9 *131:25 0.00546772
47 *127:17 *131:25 0.00478137
48 *130:7 *131:7 0
*RES
1 *788:analog_io_out[25] *131:7 5.15527 
2 *131:7 *131:9 347.411 
3 *131:9 *131:15 6.90303 
4 *131:15 *131:19 43.5659 
5 *131:19 *131:23 15.3721 
6 *131:23 *131:25 57.387 
7 *131:25 io_out[32] 4.01943 
*END

*D_NET *132 0.153022
*CONN
*P io_out[33] O
*I *788:analog_io_out[26] O *D afe_wb
*CAP
1 io_out[33] 0.00124703
2 *788:analog_io_out[26] 0.000825747
3 *132:25 0.00955713
4 *132:23 0.00977994
5 *132:9 0.00598294
6 *132:7 0.00533885
7 *132:7 *133:11 0
8 *132:23 *133:21 0.00302138
9 *132:23 *141:39 5.96489e-05
10 io_oeb[34] *132:25 0.0117083
11 *88:19 *132:23 0.000520582
12 *91:9 *132:9 0.01046
13 *91:15 *132:23 0.000974394
14 *91:17 *132:25 0.013037
15 *92:9 *132:9 0.000278538
16 *93:13 *132:9 0.00217553
17 *93:13 *132:23 5.66423e-05
18 *95:25 *132:9 0.000128824
19 *95:25 *132:23 0.00253787
20 *105:11 *132:23 0.000317948
21 *109:11 *132:9 0.00201806
22 *111:15 *132:9 0.00118913
23 *116:9 *132:9 0.00694888
24 *119:9 *132:9 0
25 *122:23 *132:23 2.68104e-05
26 *123:9 *132:9 0.00306561
27 *124:9 *132:23 0.00053045
28 *130:17 *132:25 0.0359339
29 *131:7 *132:7 0
30 *131:9 *132:9 0.025301
*RES
1 *788:analog_io_out[26] *132:7 5.22733 
2 *132:7 *132:9 316.446 
3 *132:9 *132:23 21.8697 
4 *132:23 *132:25 75.0465 
5 *132:25 io_out[33] 6.10623 
*END

*D_NET *133 0.0967365
*CONN
*P io_out[34] O
*I *788:analog_io_out[27] O *D afe_wb
*CAP
1 io_out[34] 0.000617256
2 *788:analog_io_out[27] 0.00102194
3 *133:21 0.0116236
4 *133:13 0.0211881
5 *133:11 0.0112037
6 *133:11 *143:13 0
7 *93:13 *133:13 0.0115935
8 *93:13 *133:21 0
9 *94:9 *133:13 0.0121362
10 *95:25 *133:13 1.05941e-05
11 *95:25 *133:21 8.49279e-05
12 *109:11 *133:13 0.00121928
13 *111:15 *133:13 0.00269263
14 *121:15 *133:11 0
15 *122:23 *133:21 6.92046e-05
16 *123:9 *133:13 0.00124879
17 *124:9 *133:21 0.00111259
18 *127:9 *133:13 0.000147301
19 *130:9 *133:13 0.0115044
20 *131:9 *133:13 0.000147301
21 *131:19 *133:21 0.00609384
22 *132:7 *133:11 0
23 *132:23 *133:21 0.00302138
*RES
1 *788:analog_io_out[27] *133:11 5.7647 
2 *133:11 *133:13 56.0835 
3 *133:13 *133:21 48.4745 
4 *133:21 io_out[34] 4.77143 
*END

*D_NET *141 0.449586
*CONN
*P io_out[7] O
*I *788:analog_io_out[0] O *D afe_wb
*CAP
1 io_out[7] 0.0021236
2 *788:analog_io_out[0] 0.00544462
3 *141:49 0.0131122
4 *141:47 0.0109886
5 *141:45 0.148985
6 *141:43 0.148985
7 *141:41 0.033656
8 *141:39 0.0366055
9 *141:29 0.00839407
10 *141:29 *142:26 0.00047455
11 *141:39 *142:26 3.18237e-05
12 io_oeb[34] *141:39 0.000129449
13 *3:10 *141:45 0
14 *70:14 *141:39 8.50973e-05
15 *73:16 *141:29 0.000172773
16 *75:14 *141:29 8.50973e-05
17 *76:24 *141:29 7.06766e-05
18 *77:20 *141:29 8.50973e-05
19 *81:22 *141:29 7.57101e-05
20 *82:9 *141:29 0
21 *84:19 *141:29 4.6025e-06
22 *84:31 *141:29 0.00058654
23 *85:24 *141:29 0.000163717
24 *86:24 *141:29 0.00022669
25 *87:17 *141:41 0.0251971
26 *89:23 *141:29 0.00835656
27 *89:23 *141:39 0.00437659
28 *91:7 *141:29 1.47728e-05
29 *91:15 *141:39 3.79739e-05
30 *95:25 *141:29 0
31 *108:9 *141:29 0.000114196
32 *108:33 *141:29 0.000677215
33 *130:17 *141:39 0.000265906
34 *132:23 *141:39 5.96489e-05
*RES
1 *788:analog_io_out[0] *141:29 49.4882 
2 *141:29 *141:39 21.6306 
3 *141:39 *141:41 693.482 
4 *141:41 *141:43 3.41 
5 *141:43 *141:45 448.158 
6 *141:45 *141:47 3.41 
7 *141:47 *141:49 225.982 
8 *141:49 io_out[7] 9.23487 
*END

*D_NET *142 0.468644
*CONN
*P io_out[8] O
*I *788:analog_io_out[1] O *D afe_wb
*CAP
1 io_out[8] 0.148693
2 *788:analog_io_out[1] 0.0129958
3 *142:32 0.148693
4 *142:30 0.071187
5 *142:28 0.071187
6 *142:26 0.0129958
7 io_oeb[34] *142:26 0.000203053
8 *70:14 *142:26 0
9 *73:16 *142:26 0
10 *75:14 *142:26 0
11 *76:24 *142:26 0.000497412
12 *81:22 *142:26 0
13 *84:31 *142:26 0.000187156
14 *84:33 *142:30 0
15 *85:24 *142:26 4.05479e-05
16 *86:24 *142:26 0.000122642
17 *87:17 *142:26 0.000175226
18 *89:23 *142:26 4.62133e-05
19 *103:19 *142:26 0.000240038
20 *107:24 *142:26 0.000609066
21 *108:33 *142:26 0.00026494
22 *141:29 *142:26 0.00047455
23 *141:39 *142:26 3.18237e-05
*RES
1 *788:analog_io_out[1] *142:26 48.2207 
2 *142:26 *142:28 3.41 
3 *142:28 *142:30 203.419 
4 *142:30 *142:32 3.41 
5 *142:32 io_out[8] 449.143 
*END

*D_NET *143 0.702344
*CONN
*P io_out[9] O
*I *788:analog_io_out[2] O *D afe_wb
*CAP
1 io_out[9] 8.93999e-05
2 *788:analog_io_out[2] 0.0124971
3 *143:17 0.047621
4 *143:15 0.0475316
5 *143:13 0.147182
6 *143:11 0.159679
7 *12:10 *143:17 0.00147745
8 *24:10 *143:17 0.0113937
9 *103:25 *143:17 0.045186
10 *104:17 *143:17 0.0377646
11 *105:17 *143:17 0.0287052
12 *107:24 *143:11 9.5612e-05
13 *109:17 *143:17 0.147752
14 *110:9 *143:11 0.00020996
15 *113:9 *143:11 0.00020996
16 *121:15 *143:13 0.0141543
17 *122:15 *143:11 0.000795408
18 *133:11 *143:13 0
*RES
1 *788:analog_io_out[2] *143:11 34.4795 
2 *143:11 *143:13 454.932 
3 *143:13 *143:15 3.41 
4 *143:15 *143:17 308.248 
5 *143:17 io_out[9] 3.57763 
*END

*D_NET *528 0.397913
*CONN
*P user_clock2 I
*I *789:refclk I *D CF_ADC_SAR12
*CAP
1 user_clock2 0.0015409
2 *789:refclk 0.000501909
3 *528:19 0.0239886
4 *528:17 0.0234867
5 *528:15 0.107544
6 *528:13 0.107544
7 *528:11 0.0208016
8 *528:9 0.0223425
9 *789:refclk *789:pd 0.0010857
10 *789:refclk *789:enable_hv 9.76559e-05
11 *789:refclk *646:13 0.000342344
12 *789:refclk *647:9 0.000131939
13 *789:refclk *648:9 0.000284544
14 *789:refclk *651:9 0.000497533
15 *528:15 *650:17 0.00322472
16 *528:19 *694:43 0
17 *528:19 *733:13 0.0444012
18 *103:21 *528:15 0.0400973
19 *104:13 *528:15 0
*RES
1 user_clock2 *528:9 31.8482 
2 *528:9 *528:11 428.018 
3 *528:11 *528:13 3.41 
4 *528:13 *528:15 318.546 
5 *528:15 *528:17 3.41 
6 *528:17 *528:19 105.089 
7 *528:19 *789:refclk 10.7868 
*END

*D_NET *540 0.0125124
*CONN
*P wb_clk_i I
*I *788:wb_clk_i I *D afe_wb
*CAP
1 wb_clk_i 0.0015409
2 *788:wb_clk_i 0.00163494
3 *540:11 0.00431026
4 *540:9 0.00421623
5 *788:wb_clk_i *788:wb_rst_i 0.000341846
6 *788:wb_clk_i *575:11 0.000468261
7 *788:wb_clk_i *644:11 0
*RES
1 wb_clk_i *540:9 31.8482 
2 *540:9 *540:11 55.2321 
3 *540:11 *788:wb_clk_i 26.7771 
*END

*D_NET *541 0.0126301
*CONN
*P wb_rst_i I
*I *788:wb_rst_i I *D afe_wb
*CAP
1 wb_rst_i 0.00154187
2 *788:wb_rst_i 0.00142637
3 *541:11 0.00432829
4 *541:9 0.0044438
5 *788:wb_rst_i *644:11 0.000547886
6 *788:wb_clk_i *788:wb_rst_i 0.000341846
*RES
1 wb_rst_i *541:9 31.8482 
2 *541:9 *541:11 57.6607 
3 *541:11 *788:wb_rst_i 24.0603 
*END

*D_NET *542 0.0139025
*CONN
*P wbs_ack_o O
*I *788:wbs_ack_o O *D afe_wb
*CAP
1 wbs_ack_o 0.00153508
2 *788:wbs_ack_o 0.000522759
3 *542:13 0.00502762
4 *542:11 0.0040153
5 *542:11 *788:wbs_cyc_i 0.000869022
6 *542:11 *788:wbs_stb_i 0.000266273
7 *110:9 *542:13 5.66838e-05
8 *110:13 *542:11 0.000688868
9 *112:21 *542:11 0.000260641
10 *113:19 *542:11 0.000311114
11 *115:9 *542:13 0
12 *118:9 *542:13 0
13 *120:13 *542:11 0.000349165
*RES
1 *788:wbs_ack_o *542:11 10.3067 
2 *542:11 *542:13 71.0179 
3 *542:13 wbs_ack_o 32.0982 
*END

*D_NET *543 0.0105412
*CONN
*P wbs_adr_i[0] I
*I *788:wbs_adr_i[0] I *D afe_wb
*CAP
1 wbs_adr_i[0] 0.00169691
2 *788:wbs_adr_i[0] 8.03501e-05
3 *543:19 0.00357184
4 *543:17 0.0051884
5 *788:wbs_adr_i[0] *788:wbs_dat_i[0] 0
6 *788:wbs_adr_i[0] *788:wbs_we_i 0
7 *543:17 *576:9 0
8 *543:19 *576:9 3.67279e-06
9 *543:19 *576:11 0
*RES
1 wbs_adr_i[0] *543:17 38.7375 
2 *543:17 *543:19 71.0179 
3 *543:19 *788:wbs_adr_i[0] 1.5 
*END

*D_NET *544 0.0215775
*CONN
*P wbs_adr_i[10] I
*I *788:wbs_adr_i[10] I *D afe_wb
*CAP
1 wbs_adr_i[10] 0.00312712
2 *788:wbs_adr_i[10] 0.00152876
3 *544:13 0.00513903
4 *544:11 0.00673739
5 *788:wbs_adr_i[10] *788:wbs_dat_i[10] 0
6 *788:wbs_adr_i[10] *639:5 0
7 *544:11 wbs_dat_o[11] 0.00504523
8 *544:11 *606:27 0
9 *544:13 *571:13 0
10 *544:13 *604:17 0
11 *544:13 *639:5 0
*RES
1 wbs_adr_i[10] *544:11 19.1662 
2 *544:11 *544:13 73.1429 
3 *544:13 *788:wbs_adr_i[10] 29.8839 
*END

*D_NET *545 0.0205876
*CONN
*P wbs_adr_i[11] I
*I *788:wbs_adr_i[11] I *D afe_wb
*CAP
1 wbs_adr_i[11] 0.00476104
2 *788:wbs_adr_i[11] 0.00301804
3 *545:13 0.00777907
4 *788:wbs_adr_i[11] *788:wbs_dat_i[11] 0
5 *788:wbs_adr_i[11] *577:29 0.00217132
6 *788:wbs_adr_i[11] *609:5 0
7 *545:13 wbs_dat_o[6] 0
8 *545:13 wbs_dat_o[7] 0
9 *545:13 *788:wbs_adr_i[18] 0
10 *545:13 *572:13 0
11 *545:13 *574:15 0
12 *545:13 *578:25 0.00148202
13 *545:13 *584:29 0.00137609
14 *545:13 *616:5 0
*RES
1 wbs_adr_i[11] *545:13 46.2127 
2 *545:13 *788:wbs_adr_i[11] 75.2411 
*END

*D_NET *546 0.0205405
*CONN
*P wbs_adr_i[12] I
*I *788:wbs_adr_i[12] I *D afe_wb
*CAP
1 wbs_adr_i[12] 4.32496e-05
2 *788:wbs_adr_i[12] 0.00196561
3 *546:13 0.00684191
4 *546:7 0.00738421
5 *546:5 0.00255116
6 *788:wbs_adr_i[12] *788:wbs_dat_i[12] 0
7 *788:wbs_adr_i[12] *610:5 0
8 *546:7 *586:29 0.00175435
*RES
1 wbs_adr_i[12] *546:5 0.883929 
2 *546:5 *546:7 63.875 
3 *546:7 *546:13 19.839 
4 *546:13 *788:wbs_adr_i[12] 38.2054 
*END

*D_NET *547 0.0245088
*CONN
*P wbs_adr_i[13] I
*I *788:wbs_adr_i[13] I *D afe_wb
*CAP
1 wbs_adr_i[13] 0.0037731
2 *788:wbs_adr_i[13] 0.00439845
3 *547:13 0.00817155
4 *788:wbs_adr_i[13] *788:wbs_dat_i[13] 0
5 *788:wbs_adr_i[13] *573:13 0.000103884
6 *788:wbs_adr_i[13] *579:15 0
7 *788:wbs_adr_i[13] *580:15 0
8 *788:wbs_adr_i[13] *611:5 0
9 *547:13 wbs_dat_o[9] 0.00293744
10 *547:13 *552:13 0.00168685
11 *547:13 *556:13 7.30149e-05
12 *547:13 *579:13 0.00188456
13 *547:13 *585:13 0.00147989
*RES
1 wbs_adr_i[13] *547:13 35.5527 
2 *547:13 *788:wbs_adr_i[13] 87.9911 
*END

*D_NET *548 0.0271135
*CONN
*P wbs_adr_i[14] I
*I *788:wbs_adr_i[14] I *D afe_wb
*CAP
1 wbs_adr_i[14] 0.00302611
2 *788:wbs_adr_i[14] 0.00448368
3 *548:13 0.0075098
4 *788:wbs_adr_i[14] wbs_dat_o[8] 0.000645603
5 *788:wbs_adr_i[14] *788:wbs_dat_i[14] 0
6 *788:wbs_adr_i[14] *612:5 0
7 *788:wbs_adr_i[14] *638:13 0
8 *548:13 wbs_dat_o[13] 0
9 *548:13 wbs_dat_o[21] 0.000579005
10 *548:13 *549:13 0.00838932
11 *548:13 *555:13 0.000670636
12 *548:13 *580:13 0.0012339
13 *548:13 *584:27 2.98193e-05
14 *548:13 *622:5 0.000545627
*RES
1 wbs_adr_i[14] *548:13 31.508 
2 *548:13 *788:wbs_adr_i[14] 93.4554 
*END

*D_NET *549 0.0318087
*CONN
*P wbs_adr_i[15] I
*I *788:wbs_adr_i[15] I *D afe_wb
*CAP
1 wbs_adr_i[15] 0.00292419
2 *788:wbs_adr_i[15] 0.00474435
3 *549:13 0.00766853
4 *788:wbs_adr_i[15] *788:wbs_dat_i[15] 0
5 *788:wbs_adr_i[15] *574:15 0
6 *788:wbs_adr_i[15] *607:9 0
7 *788:wbs_adr_i[15] *607:13 0
8 *788:wbs_adr_i[15] *613:5 0
9 *549:13 wbs_dat_o[17] 0.0072019
10 *549:13 wbs_dat_o[21] 0.000142228
11 *549:13 *558:13 0.000738189
12 *548:13 *549:13 0.00838932
*RES
1 wbs_adr_i[15] *549:13 31.9098 
2 *549:13 *788:wbs_adr_i[15] 94.0625 
*END

*D_NET *550 0.0292285
*CONN
*P wbs_adr_i[16] I
*I *788:wbs_adr_i[16] I *D afe_wb
*CAP
1 wbs_adr_i[16] 0.000713751
2 *788:wbs_adr_i[16] 0.00248807
3 *550:17 0.00656421
4 *550:13 0.00564944
5 *550:9 0.00228705
6 *788:wbs_adr_i[16] *788:wbs_dat_i[16] 0
7 *788:wbs_adr_i[16] *614:5 0
8 *550:9 *583:7 0
9 *550:9 *625:5 0
10 *550:13 *583:7 0
11 *550:13 *593:15 0.00120586
12 *550:17 *551:13 0.00996089
13 *550:17 *561:13 0
14 *550:17 *583:29 0.000104427
15 *550:17 *588:29 0.0002548
*RES
1 wbs_adr_i[16] *550:9 12.9554 
2 *550:9 *550:13 44.3386 
3 *550:13 *550:17 20.8251 
4 *550:17 *788:wbs_adr_i[16] 49.7411 
*END

*D_NET *551 0.0360932
*CONN
*P wbs_adr_i[17] I
*I *788:wbs_adr_i[17] I *D afe_wb
*CAP
1 wbs_adr_i[17] 4.32496e-05
2 *788:wbs_adr_i[17] 0.00256339
3 *551:13 0.00503088
4 *551:7 0.00518073
5 *551:5 0.00275649
6 *788:wbs_adr_i[17] *788:wbs_dat_i[17] 0
7 *788:wbs_adr_i[17] *615:5 0
8 *551:7 *627:9 0
9 *551:13 *561:13 0
10 *551:13 *583:29 0.000525066
11 *551:13 *588:29 0.000263712
12 *551:13 *617:11 0.00976877
13 *550:17 *551:13 0.00996089
*RES
1 wbs_adr_i[17] *551:5 0.883929 
2 *551:5 *551:7 51.7321 
3 *551:7 *551:13 25.0278 
4 *551:13 *788:wbs_adr_i[17] 50.3482 
*END

*D_NET *552 0.0307902
*CONN
*P wbs_adr_i[18] I
*I *788:wbs_adr_i[18] I *D afe_wb
*CAP
1 wbs_adr_i[18] 0.0052599
2 *788:wbs_adr_i[18] 0.00437885
3 *552:13 0.00963875
4 *788:wbs_adr_i[18] *788:wbs_dat_i[18] 0
5 *788:wbs_adr_i[18] *584:29 0
6 *788:wbs_adr_i[18] *585:15 0
7 *788:wbs_adr_i[18] *616:5 0
8 *552:13 wbs_dat_o[15] 0
9 *552:13 *556:13 0.00877031
10 *552:13 *591:21 0.00105557
11 *545:13 *788:wbs_adr_i[18] 0
12 *547:13 *552:13 0.00168685
*RES
1 wbs_adr_i[18] *552:13 42.0278 
2 *552:13 *788:wbs_adr_i[18] 86.7768 
*END

*D_NET *553 0.0342151
*CONN
*P wbs_adr_i[19] I
*I *788:wbs_adr_i[19] I *D afe_wb
*CAP
1 wbs_adr_i[19] 0.0044698
2 *788:wbs_adr_i[19] 7.96333e-05
3 *553:17 0.00518635
4 *553:15 0.00957652
5 *788:wbs_adr_i[19] *788:wbs_dat_i[19] 0
6 *788:wbs_adr_i[19] *617:5 0
7 *553:15 wbs_dat_o[17] 0
8 *553:15 wbs_dat_o[22] 0.00188074
9 *553:15 wbs_dat_o[25] 0.00551916
10 *553:15 wbs_dat_o[27] 0.0031991
11 *553:15 *584:27 0
12 *553:15 *586:27 0.00430381
13 *553:17 *788:wbs_dat_i[19] 0
14 *553:17 *578:25 0
15 *553:17 *617:5 0
*RES
1 wbs_adr_i[19] *553:15 28.9516 
2 *553:15 *553:17 99.6964 
3 *553:17 *788:wbs_adr_i[19] 1.5 
*END

*D_NET *554 0.0102575
*CONN
*P wbs_adr_i[1] I
*I *788:wbs_adr_i[1] I *D afe_wb
*CAP
1 wbs_adr_i[1] 4.32496e-05
2 *788:wbs_adr_i[1] 0.00157396
3 *554:7 0.00508549
4 *554:5 0.00355479
5 *788:wbs_adr_i[1] *788:wbs_dat_i[1] 0
6 *788:wbs_adr_i[1] *788:wbs_sel_i[0] 0
7 *554:7 *640:13 0
*RES
1 wbs_adr_i[1] *554:5 0.883929 
2 *554:5 *554:7 72.5357 
3 *554:7 *788:wbs_adr_i[1] 31.1161 
*END

*D_NET *555 0.0353548
*CONN
*P wbs_adr_i[20] I
*I *788:wbs_adr_i[20] I *D afe_wb
*CAP
1 wbs_adr_i[20] 0.00343293
2 *788:wbs_adr_i[20] 0.00460427
3 *555:13 0.0080372
4 *788:wbs_adr_i[20] *788:wbs_dat_i[20] 0
5 *788:wbs_adr_i[20] *579:13 0.000154144
6 *788:wbs_adr_i[20] *586:29 0
7 *788:wbs_adr_i[20] *618:5 0
8 *555:13 wbs_dat_o[21] 0.011752
9 *555:13 *580:13 0.000994442
10 *555:13 *589:13 0.00172088
11 *555:13 *593:13 0.00398836
12 *548:13 *555:13 0.000670636
*RES
1 wbs_adr_i[20] *555:13 39.2606 
2 *555:13 *788:wbs_adr_i[20] 91.6339 
*END

*D_NET *556 0.0401959
*CONN
*P wbs_adr_i[21] I
*I *788:wbs_adr_i[21] I *D afe_wb
*CAP
1 wbs_adr_i[21] 0.00428873
2 *788:wbs_adr_i[21] 0.00441826
3 *556:13 0.00870698
4 *788:wbs_adr_i[21] *788:wbs_dat_i[21] 0
5 *788:wbs_adr_i[21] *620:5 0
6 *556:13 wbs_dat_o[20] 0
7 *556:13 *557:13 0.0128642
8 *556:13 *585:13 0.000326726
9 *556:13 *591:21 0.000747714
10 *547:13 *556:13 7.30149e-05
11 *552:13 *556:13 0.00877031
*RES
1 wbs_adr_i[21] *556:13 44.9302 
2 *556:13 *788:wbs_adr_i[21] 87.3839 
*END

*D_NET *557 0.0378972
*CONN
*P wbs_adr_i[22] I
*I *788:wbs_adr_i[22] I *D afe_wb
*CAP
1 wbs_adr_i[22] 0.00485689
2 *788:wbs_adr_i[22] 0.00451213
3 *557:13 0.00936903
4 *788:wbs_adr_i[22] *788:wbs_dat_i[22] 0
5 *788:wbs_adr_i[22] *612:15 0
6 *788:wbs_adr_i[22] *621:5 0
7 *557:13 *585:13 0.00445753
8 *557:13 *589:13 0.00158548
9 *557:13 *591:21 0
10 *557:13 *593:13 0.000252
11 *556:13 *557:13 0.0128642
*RES
1 wbs_adr_i[22] *557:13 45.332 
2 *557:13 *788:wbs_adr_i[22] 87.9911 
*END

*D_NET *558 0.0447357
*CONN
*P wbs_adr_i[23] I
*I *788:wbs_adr_i[23] I *D afe_wb
*CAP
1 wbs_adr_i[23] 0.00331532
2 *788:wbs_adr_i[23] 0.00473038
3 *558:13 0.0080457
4 *788:wbs_adr_i[23] *788:wbs_dat_i[23] 0
5 *788:wbs_adr_i[23] *581:9 0
6 *788:wbs_adr_i[23] *590:29 0
7 *788:wbs_adr_i[23] *591:29 0
8 *788:wbs_adr_i[23] *622:5 0
9 *558:13 wbs_dat_o[17] 0.000327523
10 *558:13 wbs_dat_o[21] 0.0132293
11 *558:13 *560:13 0.0136464
12 *558:13 *591:21 0
13 *558:13 *593:13 0.000703003
14 *558:13 *624:13 0
15 *549:13 *558:13 0.000738189
*RES
1 wbs_adr_i[23] *558:13 41.774 
2 *558:13 *788:wbs_adr_i[23] 92.8482 
*END

*D_NET *559 0.0312592
*CONN
*P wbs_adr_i[24] I
*I *788:wbs_adr_i[24] I *D afe_wb
*CAP
1 wbs_adr_i[24] 0.00113513
2 *788:wbs_adr_i[24] 0.001052
3 *559:21 0.00891498
4 *559:15 0.00965843
5 *559:13 0.00293058
6 *788:wbs_adr_i[24] *788:wbs_dat_i[24] 0
7 *788:wbs_adr_i[24] *623:7 0
8 *559:13 *592:9 0
9 *559:13 *628:13 0.00217585
10 *559:15 *592:9 0
11 *559:15 *628:13 0.00233465
12 *559:21 *788:wbs_dat_i[24] 6.04834e-06
13 *559:21 *788:wbs_dat_i[25] 6.04834e-06
14 *559:21 *788:wbs_dat_i[30] 3.36359e-05
15 *559:21 *563:17 0
16 *559:21 *594:17 0.00301187
17 *559:21 *597:29 0
*RES
1 wbs_adr_i[24] *559:13 32.0982 
2 *559:13 *559:15 52.1964 
3 *559:15 *559:21 32.5227 
4 *559:21 *788:wbs_adr_i[24] 19.9911 
*END

*D_NET *560 0.0470344
*CONN
*P wbs_adr_i[25] I
*I *788:wbs_adr_i[25] I *D afe_wb
*CAP
1 wbs_adr_i[25] 0.00362199
2 *788:wbs_adr_i[25] 0.00477322
3 *560:13 0.00839521
4 *788:wbs_adr_i[25] wbs_dat_o[15] 0
5 *788:wbs_adr_i[25] *788:wbs_dat_i[25] 0
6 *788:wbs_adr_i[25] *582:9 0
7 *788:wbs_adr_i[25] *592:29 0
8 *560:13 wbs_dat_o[17] 0.00128304
9 *560:13 *562:13 0.0147043
10 *560:13 *593:13 0.000610321
11 *560:13 *632:17 0
12 *558:13 *560:13 0.0136464
*RES
1 wbs_adr_i[25] *560:13 42.7 
2 *560:13 *788:wbs_adr_i[25] 93.4554 
*END

*D_NET *561 0.0304615
*CONN
*P wbs_adr_i[26] I
*I *788:wbs_adr_i[26] I *D afe_wb
*CAP
1 wbs_adr_i[26] 4.32496e-05
2 *788:wbs_adr_i[26] 0.00184245
3 *561:13 0.00944093
4 *561:7 0.0104722
5 *561:5 0.00291693
6 *788:wbs_adr_i[26] *788:wbs_dat_i[25] 0.000130744
7 *788:wbs_adr_i[26] *788:wbs_dat_i[26] 0
8 *788:wbs_adr_i[26] *593:15 0.00126417
9 *788:wbs_adr_i[26] *625:5 0
10 *561:13 *595:27 0.0043509
11 *561:13 *617:11 0
12 *550:17 *561:13 0
13 *551:13 *561:13 0
*RES
1 wbs_adr_i[26] *561:5 0.883929 
2 *561:5 *561:7 57.1964 
3 *561:7 *561:13 34.4685 
4 *561:13 *788:wbs_adr_i[26] 44.8839 
*END

*D_NET *562 0.0413779
*CONN
*P wbs_adr_i[27] I
*I *788:wbs_adr_i[27] I *D afe_wb
*CAP
1 wbs_adr_i[27] 0.00684894
2 *788:wbs_adr_i[27] 0.00436193
3 *562:13 0.0112109
4 *788:wbs_adr_i[27] wbs_dat_o[16] 0.00203871
5 *788:wbs_adr_i[27] *788:wbs_dat_i[27] 0
6 *788:wbs_adr_i[27] *626:5 0
7 *562:13 wbs_dat_o[17] 0.00172695
8 *562:13 wbs_dat_o[24] 0.000486234
9 *562:13 wbs_dat_o[29] 0
10 *562:13 *590:27 0
11 *562:13 *593:13 0
12 *560:13 *562:13 0.0147043
*RES
1 wbs_adr_i[27] *562:13 44.1828 
2 *562:13 *788:wbs_adr_i[27] 94.0625 
*END

*D_NET *563 0.0311821
*CONN
*P wbs_adr_i[28] I
*I *788:wbs_adr_i[28] I *D afe_wb
*CAP
1 wbs_adr_i[28] 0.00159057
2 *788:wbs_adr_i[28] 0.000752078
3 *563:17 0.00881707
4 *563:11 0.0109304
5 *563:9 0.00445594
6 *788:wbs_adr_i[28] *788:wbs_dat_i[28] 0
7 *788:wbs_adr_i[28] *627:7 0
8 *563:17 *788:wbs_dat_i[30] 4.22274e-05
9 *563:17 *597:29 0.00459382
10 *559:21 *563:17 0
*RES
1 wbs_adr_i[28] *563:9 31.8482 
2 *563:9 *563:11 58.2679 
3 *563:11 *563:17 36.7026 
4 *563:17 *788:wbs_adr_i[28] 13.9196 
*END

*D_NET *564 0.0349503
*CONN
*P wbs_adr_i[29] I
*I *788:wbs_adr_i[29] I *D afe_wb
*CAP
1 wbs_adr_i[29] 0.00139253
2 *788:wbs_adr_i[29] 0.00381708
3 *564:13 0.0135929
4 *564:9 0.0111683
5 *788:wbs_adr_i[29] *788:wbs_dat_i[29] 0
6 *564:13 *592:27 0
7 *564:13 *620:11 0.00497948
8 *564:13 *626:11 0
*RES
1 wbs_adr_i[29] *564:9 31.3475 
2 *564:9 *564:13 34.0853 
3 *564:13 *788:wbs_adr_i[29] 75.2411 
*END

*D_NET *565 0.0126298
*CONN
*P wbs_adr_i[2] I
*I *788:wbs_adr_i[2] I *D afe_wb
*CAP
1 wbs_adr_i[2] 0.00113876
2 *788:wbs_adr_i[2] 0.00109419
3 *565:15 0.0040463
4 *565:13 0.00409087
5 *788:wbs_adr_i[2] *788:wbs_dat_i[2] 0
6 *788:wbs_adr_i[2] *788:wbs_sel_i[1] 0
7 *565:13 *788:wbs_sel_i[2] 0.00166317
8 *565:13 *598:15 0.000596499
9 *565:13 *630:9 0
10 *119:13 *788:wbs_adr_i[2] 0
*RES
1 wbs_adr_i[2] *565:13 33.2624 
2 *565:13 *565:15 60.8393 
3 *565:15 *788:wbs_adr_i[2] 25.59 
*END

*D_NET *566 0.0327104
*CONN
*P wbs_adr_i[30] I
*I *788:wbs_adr_i[30] I *D afe_wb
*CAP
1 wbs_adr_i[30] 0.00228254
2 *788:wbs_adr_i[30] 0.00295835
3 *566:17 0.0140727
4 *566:11 0.0133969
5 *788:wbs_adr_i[30] *788:wbs_dat_i[30] 0
6 *788:wbs_adr_i[30] *617:13 0
7 *788:wbs_adr_i[30] *629:5 0
8 *566:17 *567:13 0
9 *566:17 *588:29 0
*RES
1 wbs_adr_i[30] *566:11 46.5982 
2 *566:11 *566:17 38.7925 
3 *566:17 *788:wbs_adr_i[30] 57.0268 
*END

*D_NET *567 0.0331031
*CONN
*P wbs_adr_i[31] I
*I *788:wbs_adr_i[31] I *D afe_wb
*CAP
1 wbs_adr_i[31] 0.00193678
2 *788:wbs_adr_i[31] 0.0025172
3 *567:13 0.0135821
4 *567:9 0.0130017
5 *788:wbs_adr_i[31] *788:wbs_dat_i[31] 0
6 *788:wbs_adr_i[31] *599:25 0.00206524
7 *567:13 *618:11 0
8 *566:17 *567:13 0
*RES
1 wbs_adr_i[31] *567:9 43.0796 
2 *567:9 *567:13 36.2473 
3 *567:13 *788:wbs_adr_i[31] 63.0982 
*END

*D_NET *568 0.0134116
*CONN
*P wbs_adr_i[3] I
*I *788:wbs_adr_i[3] I *D afe_wb
*CAP
1 wbs_adr_i[3] 0.00110223
2 *788:wbs_adr_i[3] 0.00108617
3 *568:13 0.00511235
4 *568:11 0.0051284
5 *788:wbs_adr_i[3] *788:wbs_dat_i[3] 0
6 *788:wbs_adr_i[3] *788:wbs_sel_i[2] 0
7 *568:11 wbs_dat_o[2] 0.000280966
8 *568:11 *569:25 4.64239e-05
9 *568:11 *601:13 0
10 *568:11 *642:13 0.000254055
11 *568:13 *598:13 0.000401035
12 *119:13 *788:wbs_adr_i[3] 0
*RES
1 wbs_adr_i[3] *568:11 11.0443 
2 *568:11 *568:13 84.5179 
3 *568:13 *788:wbs_adr_i[3] 25.4459 
*END

*D_NET *569 0.0152858
*CONN
*P wbs_adr_i[4] I
*I *788:wbs_adr_i[4] I *D afe_wb
*CAP
1 wbs_adr_i[4] 0.00175204
2 *788:wbs_adr_i[4] 0.00143195
3 *569:27 0.00548028
4 *569:25 0.00580037
5 *788:wbs_adr_i[4] *788:wbs_dat_i[3] 0
6 *788:wbs_adr_i[4] *788:wbs_dat_i[4] 0
7 *788:wbs_adr_i[4] *788:wbs_sel_i[3] 0
8 *569:25 *570:27 0.000117193
9 *569:25 *571:13 0
10 *569:25 *601:13 0.000503572
11 *569:25 *603:23 0.000151187
12 *569:27 *788:wbs_sel_i[3] 0
13 *569:27 *642:13 2.83284e-06
14 *568:11 *569:25 4.64239e-05
*RES
1 wbs_adr_i[4] *569:25 21.5855 
2 *569:25 *569:27 81.4821 
3 *569:27 *788:wbs_adr_i[4] 25.9503 
*END

*D_NET *570 0.0167045
*CONN
*P wbs_adr_i[5] I
*I *788:wbs_adr_i[5] I *D afe_wb
*CAP
1 wbs_adr_i[5] 0.00209517
2 *788:wbs_adr_i[5] 0.00109309
3 *570:29 0.00517721
4 *570:27 0.0061793
5 *788:wbs_adr_i[5] *788:wbs_dat_i[5] 0.000190993
6 *788:wbs_adr_i[5] *634:11 0.000283712
7 *570:27 wbs_dat_o[5] 0.00156782
8 *570:29 wbs_dat_o[3] 0
9 *570:29 *601:13 0
10 *570:29 *635:7 0
11 *119:13 *788:wbs_adr_i[5] 0
12 *569:25 *570:27 0.000117193
*RES
1 wbs_adr_i[5] *570:27 19.2315 
2 *570:27 *570:29 83.9107 
3 *570:29 *788:wbs_adr_i[5] 25.7341 
*END

*D_NET *571 0.015877
*CONN
*P wbs_adr_i[6] I
*I *788:wbs_adr_i[6] I *D afe_wb
*CAP
1 wbs_adr_i[6] 0.00243854
2 *788:wbs_adr_i[6] 0.00356247
3 *571:13 0.00600101
4 *788:wbs_adr_i[6] *788:wbs_dat_i[6] 0
5 *788:wbs_adr_i[6] *603:25 0.00331645
6 *788:wbs_adr_i[6] *635:7 0
7 *788:wbs_adr_i[6] *643:13 0.000255079
8 *571:13 *606:27 0.000292596
9 *571:13 *643:13 1.08895e-05
10 *544:13 *571:13 0
11 *569:25 *571:13 0
*RES
1 wbs_adr_i[6] *571:13 22.1304 
2 *571:13 *788:wbs_adr_i[6] 94.0625 
*END

*D_NET *572 0.0207545
*CONN
*P wbs_adr_i[7] I
*I *788:wbs_adr_i[7] I *D afe_wb
*CAP
1 wbs_adr_i[7] 0.0020082
2 *788:wbs_adr_i[7] 0.00399941
3 *572:13 0.00600761
4 *788:wbs_adr_i[7] *788:wbs_dat_i[4] 0
5 *788:wbs_adr_i[7] *788:wbs_dat_i[7] 0
6 *788:wbs_adr_i[7] *602:11 0
7 *788:wbs_adr_i[7] *636:5 0
8 *572:13 wbs_dat_o[6] 0.00456467
9 *572:13 wbs_dat_o[7] 0.00417463
10 *572:13 *610:5 0
11 *545:13 *572:13 0
*RES
1 wbs_adr_i[7] *572:13 36.9072 
2 *572:13 *788:wbs_adr_i[7] 80.7054 
*END

*D_NET *573 0.0184822
*CONN
*P wbs_adr_i[8] I
*I *788:wbs_adr_i[8] I *D afe_wb
*CAP
1 wbs_adr_i[8] 0.00308246
2 *788:wbs_adr_i[8] 0.00430851
3 *573:13 0.00739097
4 *788:wbs_adr_i[8] wbs_dat_o[4] 0
5 *788:wbs_adr_i[8] *788:wbs_dat_i[8] 0
6 *788:wbs_adr_i[8] *606:29 0
7 *788:wbs_adr_i[8] *634:13 0
8 *788:wbs_adr_i[8] *637:5 0
9 *573:13 wbs_dat_o[7] 0
10 *573:13 wbs_dat_o[9] 0.00359643
11 *573:13 *579:15 0
12 *573:13 *606:27 0
13 *788:wbs_adr_i[13] *573:13 0.000103884
*RES
1 wbs_adr_i[8] *573:13 31.8447 
2 *573:13 *788:wbs_adr_i[8] 86.7768 
*END

*D_NET *574 0.0173436
*CONN
*P wbs_adr_i[9] I
*I *788:wbs_adr_i[9] I *D afe_wb
*CAP
1 wbs_adr_i[9] 0.00483721
2 *788:wbs_adr_i[9] 0.00343633
3 *574:17 0.00343633
4 *574:15 0.00483721
5 *788:wbs_adr_i[9] *788:wbs_dat_i[9] 0
6 *788:wbs_adr_i[9] *638:11 0
7 *574:15 *577:11 0
8 *574:15 *577:27 0
9 *574:15 *604:17 0
10 *574:15 *607:9 0
11 *574:15 *609:11 0
12 *574:15 *611:11 0.000289498
13 *574:15 *612:15 0.00041154
14 *574:15 *613:11 9.55055e-05
15 *788:wbs_adr_i[15] *574:15 0
16 *545:13 *574:15 0
*RES
1 wbs_adr_i[9] *574:15 47.9296 
2 *574:15 *574:17 3.41 
3 *574:17 *788:wbs_adr_i[9] 69.1696 
*END

*D_NET *575 0.0134267
*CONN
*P wbs_cyc_i I
*I *788:wbs_cyc_i I *D afe_wb
*CAP
1 wbs_cyc_i 0.0015112
2 *788:wbs_cyc_i 0.000383199
3 *575:11 0.00373689
4 *575:9 0.00486488
5 *788:wbs_cyc_i *788:wbs_stb_i 0.000165055
6 *788:wbs_cyc_i *788:wbs_we_i 5.11642e-05
7 *788:wb_clk_i *575:11 0.000468261
8 *113:19 *788:wbs_cyc_i 0.000160335
9 *120:13 *788:wbs_cyc_i 0.0012167
10 *542:11 *788:wbs_cyc_i 0.000869022
*RES
1 wbs_cyc_i *575:9 31.2411 
2 *575:9 *575:11 71.625 
3 *575:11 *788:wbs_cyc_i 9.33927 
*END

*D_NET *576 0.0104163
*CONN
*P wbs_dat_i[0] I
*I *788:wbs_dat_i[0] I *D afe_wb
*CAP
1 wbs_dat_i[0] 0.00157443
2 *788:wbs_dat_i[0] 8.02626e-05
3 *576:11 0.0036319
4 *576:9 0.00512607
5 *788:wbs_dat_i[0] *608:7 0
6 *576:9 wbs_dat_o[0] 0
7 *576:11 *608:9 0
8 *788:wbs_adr_i[0] *788:wbs_dat_i[0] 0
9 *543:17 *576:9 0
10 *543:19 *576:9 3.67279e-06
11 *543:19 *576:11 0
*RES
1 wbs_dat_i[0] *576:9 32.4732 
2 *576:9 *576:11 71.0179 
3 *576:11 *788:wbs_dat_i[0] 1.5 
*END

*D_NET *577 0.0216795
*CONN
*P wbs_dat_i[10] I
*I *788:wbs_dat_i[10] I *D afe_wb
*CAP
1 wbs_dat_i[10] 0.00325946
2 *788:wbs_dat_i[10] 0.00126686
3 *577:29 0.00287473
4 *577:27 0.00273129
5 *577:11 0.00438287
6 *788:wbs_dat_i[10] *788:wbs_dat_i[11] 0
7 *788:wbs_dat_i[10] *609:5 0.000261027
8 *788:wbs_dat_i[10] *638:11 0.000127758
9 *577:11 *581:25 0.00033273
10 *577:11 *609:11 0.00124069
11 *577:11 *611:11 0.00250235
12 *577:11 *615:5 0.00024406
13 *577:27 *609:11 0.000284325
14 *577:29 *609:5 0
15 *788:wbs_adr_i[10] *788:wbs_dat_i[10] 0
16 *788:wbs_adr_i[11] *577:29 0.00217132
17 *574:15 *577:11 0
18 *574:15 *577:27 0
*RES
1 wbs_dat_i[10] *577:11 48.856 
2 *577:11 *577:27 12.4672 
3 *577:27 *577:29 48.0893 
4 *577:29 *788:wbs_dat_i[10] 26.2386 
*END

*D_NET *578 0.0208569
*CONN
*P wbs_dat_i[11] I
*I *788:wbs_dat_i[11] I *D afe_wb
*CAP
1 wbs_dat_i[11] 0.00548048
2 *788:wbs_dat_i[11] 0.00109517
3 *578:29 0.00326367
4 *578:27 0.0021685
5 *578:25 0.00548048
6 *788:wbs_dat_i[11] *610:5 0
7 *788:wbs_dat_i[11] *638:11 4.99404e-05
8 *578:25 wbs_dat_o[15] 0
9 *578:25 wbs_dat_o[7] 0
10 *578:25 *585:15 0
11 *578:29 *610:5 0.0018366
12 *788:wbs_adr_i[11] *788:wbs_dat_i[11] 0
13 *788:wbs_dat_i[10] *788:wbs_dat_i[11] 0
14 *545:13 *578:25 0.00148202
15 *553:17 *578:25 0
*RES
1 wbs_dat_i[11] *578:25 46.8238 
2 *578:25 *578:27 3.41 
3 *578:27 *578:29 60.2321 
4 *578:29 *788:wbs_dat_i[11] 25.59 
*END

*D_NET *579 0.0267004
*CONN
*P wbs_dat_i[12] I
*I *788:wbs_dat_i[12] I *D afe_wb
*CAP
1 wbs_dat_i[12] 0.00281795
2 *788:wbs_dat_i[12] 0.00119481
3 *579:15 0.00413534
4 *579:13 0.00575848
5 *788:wbs_dat_i[12] *788:wbs_dat_i[13] 0
6 *788:wbs_dat_i[12] *611:5 0.000261027
7 *788:wbs_dat_i[12] *638:11 0.000127758
8 *579:13 wbs_dat_o[9] 4.69663e-05
9 *579:13 *580:13 0.00707536
10 *579:13 *585:13 0.00168757
11 *579:13 *586:29 0
12 *579:15 wbs_dat_o[7] 0
13 *579:15 *611:5 0.00155644
14 *788:wbs_adr_i[12] *788:wbs_dat_i[12] 0
15 *788:wbs_adr_i[13] *579:15 0
16 *788:wbs_adr_i[20] *579:13 0.000154144
17 *547:13 *579:13 0.00188456
18 *573:13 *579:15 0
*RES
1 wbs_dat_i[12] *579:13 32.2178 
2 *579:13 *579:15 72.9821 
3 *579:15 *788:wbs_dat_i[12] 26.0224 
*END

*D_NET *580 0.02654
*CONN
*P wbs_dat_i[13] I
*I *788:wbs_dat_i[13] I *D afe_wb
*CAP
1 wbs_dat_i[13] 0.0032547
2 *788:wbs_dat_i[13] 0.0011669
3 *580:15 0.00482639
4 *580:13 0.00691419
5 *788:wbs_dat_i[13] *612:5 0
6 *788:wbs_dat_i[13] *638:11 2.27249e-05
7 *580:13 *584:27 1.95201e-05
8 *580:13 *585:13 0.000877847
9 *580:13 *589:13 7.30149e-05
10 *580:13 *606:27 0
11 *580:13 *621:5 8.10544e-05
12 *580:15 *612:5 0
13 *788:wbs_adr_i[13] *788:wbs_dat_i[13] 0
14 *788:wbs_adr_i[13] *580:15 0
15 *788:wbs_dat_i[12] *788:wbs_dat_i[13] 0
16 *548:13 *580:13 0.0012339
17 *555:13 *580:13 0.000994442
18 *579:13 *580:13 0.00707536
*RES
1 wbs_dat_i[13] *580:13 33.3403 
2 *580:13 *580:15 73.5893 
3 *580:15 *788:wbs_dat_i[13] 25.3738 
*END

*D_NET *581 0.0268545
*CONN
*P wbs_dat_i[14] I
*I *788:wbs_dat_i[14] I *D afe_wb
*CAP
1 wbs_dat_i[14] 0.00198358
2 *788:wbs_dat_i[14] 0.00110679
3 *581:27 0.00259921
4 *581:25 0.00615871
5 *581:9 0.00664987
6 *788:wbs_dat_i[14] *613:5 0.000254093
7 *788:wbs_dat_i[14] *638:13 7.83929e-05
8 *581:9 *591:29 0
9 *581:25 *582:13 0
10 *581:25 *609:11 0.000620662
11 *581:25 *611:11 0.00188801
12 *581:25 *612:15 0.000721229
13 *581:25 *613:11 0.000556413
14 *581:27 *613:5 0.00390481
15 *581:27 *638:13 0
16 *788:wbs_adr_i[14] *788:wbs_dat_i[14] 0
17 *788:wbs_adr_i[23] *581:9 0
18 *119:13 *788:wbs_dat_i[14] 0
19 *577:11 *581:25 0.00033273
*RES
1 wbs_dat_i[14] *581:9 41.2582 
2 *581:9 *581:25 23.1478 
3 *581:25 *581:27 48.0893 
4 *581:27 *788:wbs_dat_i[14] 25.7341 
*END

*D_NET *582 0.0233066
*CONN
*P wbs_dat_i[15] I
*I *788:wbs_dat_i[15] I *D afe_wb
*CAP
1 wbs_dat_i[15] 0.00223182
2 *788:wbs_dat_i[15] 0.00124442
3 *582:21 0.00273957
4 *582:13 0.00708459
5 *582:9 0.00782126
6 *788:wbs_dat_i[15] *614:5 0.000254093
7 *582:9 *592:29 0
8 *582:13 *588:29 0
9 *582:13 *609:11 0
10 *582:21 *607:13 0
11 *582:21 *614:5 0.00193086
12 *788:wbs_adr_i[15] *788:wbs_dat_i[15] 0
13 *788:wbs_adr_i[25] *582:9 0
14 *581:25 *582:13 0
*RES
1 wbs_dat_i[15] *582:9 46.3118 
2 *582:9 *582:13 19.4558 
3 *582:13 *582:21 49.528 
4 *582:21 *788:wbs_dat_i[15] 18.759 
*END

*D_NET *583 0.0284663
*CONN
*P wbs_dat_i[16] I
*I *788:wbs_dat_i[16] I *D afe_wb
*CAP
1 wbs_dat_i[16] 0.00258975
2 *788:wbs_dat_i[16] 0.00239895
3 *583:29 0.00770845
4 *583:7 0.00789925
5 *788:wbs_dat_i[16] *615:5 0
6 *583:7 *626:5 0
7 *583:29 *588:29 0.00452273
8 *583:29 *617:11 0.00271768
9 *788:wbs_adr_i[16] *788:wbs_dat_i[16] 0
10 *550:9 *583:7 0
11 *550:13 *583:7 0
12 *550:17 *583:29 0.000104427
13 *551:13 *583:29 0.000525066
*RES
1 wbs_dat_i[16] *583:7 49.5804 
2 *583:7 *583:29 31.0648 
3 *583:29 *788:wbs_dat_i[16] 47.9196 
*END

*D_NET *584 0.0272792
*CONN
*P wbs_dat_i[17] I
*I *788:wbs_dat_i[17] I *D afe_wb
*CAP
1 wbs_dat_i[17] 0.0052279
2 *788:wbs_dat_i[17] 0.00124202
3 *584:29 0.00371416
4 *584:27 0.00770003
5 *788:wbs_dat_i[17] *788:wbs_dat_i[18] 0
6 *788:wbs_dat_i[17] *616:5 0.000261027
7 *584:27 wbs_dat_o[17] 0.00363545
8 *584:27 wbs_dat_o[22] 0
9 *584:27 *586:27 0.000655753
10 *584:27 *590:27 0.00112592
11 *584:27 *627:9 0
12 *584:29 *616:5 0.00229151
13 *788:wbs_adr_i[17] *788:wbs_dat_i[17] 0
14 *788:wbs_adr_i[18] *584:29 0
15 *119:13 *788:wbs_dat_i[17] 0
16 *545:13 *584:29 0.00137609
17 *548:13 *584:27 2.98193e-05
18 *553:15 *584:27 0
19 *580:13 *584:27 1.95201e-05
*RES
1 wbs_dat_i[17] *584:27 37.6708 
2 *584:27 *584:29 75.4107 
3 *584:29 *788:wbs_dat_i[17] 26.0224 
*END

*D_NET *585 0.034987
*CONN
*P wbs_dat_i[18] I
*I *788:wbs_dat_i[18] I *D afe_wb
*CAP
1 wbs_dat_i[18] 0.00386537
2 *788:wbs_dat_i[18] 0.00109335
3 *585:15 0.00471741
4 *585:13 0.00748942
5 *788:wbs_dat_i[18] *617:5 0
6 *585:13 *589:13 0.00899192
7 *585:13 *617:13 0
8 *585:13 *629:5 0
9 *585:15 *617:5 0
10 *788:wbs_adr_i[18] *788:wbs_dat_i[18] 0
11 *788:wbs_adr_i[18] *585:15 0
12 *788:wbs_dat_i[17] *788:wbs_dat_i[18] 0
13 *119:13 *788:wbs_dat_i[18] 0
14 *547:13 *585:13 0.00147989
15 *556:13 *585:13 0.000326726
16 *557:13 *585:13 0.00445753
17 *578:25 *585:15 0
18 *579:13 *585:13 0.00168757
19 *580:13 *585:13 0.000877847
*RES
1 wbs_dat_i[18] *585:13 40.3722 
2 *585:13 *585:15 72.375 
3 *585:15 *788:wbs_dat_i[18] 25.3738 
*END

*D_NET *586 0.0326681
*CONN
*P wbs_dat_i[19] I
*I *788:wbs_dat_i[19] I *D afe_wb
*CAP
1 wbs_dat_i[19] 0.0053138
2 *788:wbs_dat_i[19] 0.00113663
3 *586:29 0.00348715
4 *586:27 0.00766432
5 *788:wbs_dat_i[19] *618:5 0.000254093
6 *586:27 wbs_dat_o[27] 0.0038651
7 *586:29 *618:5 0.00423307
8 *788:wbs_adr_i[19] *788:wbs_dat_i[19] 0
9 *788:wbs_adr_i[20] *586:29 0
10 *119:13 *788:wbs_dat_i[19] 0
11 *546:7 *586:29 0.00175435
12 *553:15 *586:27 0.00430381
13 *553:17 *788:wbs_dat_i[19] 0
14 *579:13 *586:29 0
15 *584:27 *586:27 0.000655753
*RES
1 wbs_dat_i[19] *586:27 35.4993 
2 *586:27 *586:29 80.2679 
3 *586:29 *788:wbs_dat_i[19] 25.7341 
*END

*D_NET *587 0.0114142
*CONN
*P wbs_dat_i[1] I
*I *788:wbs_dat_i[1] I *D afe_wb
*CAP
1 wbs_dat_i[1] 0.00121307
2 *788:wbs_dat_i[1] 0.00105154
3 *587:11 0.00395395
4 *587:9 0.00411547
5 *788:wbs_dat_i[1] *619:5 0
6 *587:9 *788:wbs_sel_i[1] 0
7 *587:9 *619:5 0.00108014
8 *788:wbs_adr_i[1] *788:wbs_dat_i[1] 0
*RES
1 wbs_dat_i[1] *587:9 31.2411 
2 *587:9 *587:11 57.8125 
3 *587:11 *788:wbs_dat_i[1] 28.4286 
*END

*D_NET *588 0.0307875
*CONN
*P wbs_dat_i[20] I
*I *788:wbs_dat_i[20] I *D afe_wb
*CAP
1 wbs_dat_i[20] 0.00258289
2 *788:wbs_dat_i[20] 0.00242824
3 *588:29 0.00970746
4 *588:7 0.00986211
5 *788:wbs_dat_i[20] *620:5 0
6 *588:29 *595:27 0
7 *588:29 *617:11 0.00116551
8 *788:wbs_adr_i[20] *788:wbs_dat_i[20] 0
9 *550:17 *588:29 0.0002548
10 *551:13 *588:29 0.000263712
11 *566:17 *588:29 0
12 *582:13 *588:29 0
13 *583:29 *588:29 0.00452273
*RES
1 wbs_dat_i[20] *588:7 49.5804 
2 *588:7 *588:29 35.2234 
3 *588:29 *788:wbs_dat_i[20] 47.9196 
*END

*D_NET *589 0.0395444
*CONN
*P wbs_dat_i[21] I
*I *788:wbs_dat_i[21] I *D afe_wb
*CAP
1 wbs_dat_i[21] 0.00399969
2 *788:wbs_dat_i[21] 0.00119034
3 *589:15 0.00389174
4 *589:13 0.00670109
5 *788:wbs_dat_i[21] *621:5 0
6 *589:13 *593:13 0.00917999
7 *589:15 *621:5 0.00221029
8 *788:wbs_adr_i[21] *788:wbs_dat_i[21] 0
9 *119:13 *788:wbs_dat_i[21] 0
10 *555:13 *589:13 0.00172088
11 *557:13 *589:13 0.00158548
12 *580:13 *589:13 7.30149e-05
13 *585:13 *589:13 0.00899192
*RES
1 wbs_dat_i[21] *589:13 42.4296 
2 *589:13 *589:15 72.9821 
3 *589:15 *788:wbs_dat_i[21] 25.59 
*END

*D_NET *590 0.0390853
*CONN
*P wbs_dat_i[22] I
*I *788:wbs_dat_i[22] I *D afe_wb
*CAP
1 wbs_dat_i[22] 0.00431745
2 *788:wbs_dat_i[22] 0.00121875
3 *590:29 0.00411241
4 *590:27 0.00721111
5 *788:wbs_dat_i[22] *788:wbs_dat_i[23] 0
6 *788:wbs_dat_i[22] *622:5 0.000261027
7 *590:27 wbs_dat_o[17] 0
8 *590:27 wbs_dat_o[22] 0.0133117
9 *590:27 wbs_dat_o[29] 0.00392621
10 *590:29 *622:5 0.00360069
11 *788:wbs_adr_i[22] *788:wbs_dat_i[22] 0
12 *788:wbs_adr_i[23] *590:29 0
13 *119:13 *788:wbs_dat_i[22] 0
14 *562:13 *590:27 0
15 *584:27 *590:27 0.00112592
*RES
1 wbs_dat_i[22] *590:27 39.0967 
2 *590:27 *590:29 81.4821 
3 *590:29 *788:wbs_dat_i[22] 25.9503 
*END

*D_NET *591 0.02937
*CONN
*P wbs_dat_i[23] I
*I *788:wbs_dat_i[23] I *D afe_wb
*CAP
1 wbs_dat_i[23] 0.00749071
2 *788:wbs_dat_i[23] 0.00106888
3 *591:29 0.00422291
4 *591:27 0.00353041
5 *591:21 0.00786709
6 *788:wbs_dat_i[23] *623:7 0
7 *591:21 wbs_dat_o[15] 0.00030874
8 *591:21 *593:13 0
9 *591:21 *624:13 0.000379056
10 *591:21 *626:11 0.00231957
11 *591:27 wbs_dat_o[15] 0.00037933
12 *591:27 *620:11 0
13 *591:29 wbs_dat_o[14] 0
14 *591:29 *623:7 0
15 *788:wbs_adr_i[23] *788:wbs_dat_i[23] 0
16 *788:wbs_adr_i[23] *591:29 0
17 *788:wbs_dat_i[22] *788:wbs_dat_i[23] 0
18 *119:13 *788:wbs_dat_i[23] 0
19 *552:13 *591:21 0.00105557
20 *556:13 *591:21 0.000747714
21 *557:13 *591:21 0
22 *558:13 *591:21 0
23 *581:9 *591:29 0
*RES
1 wbs_dat_i[23] *591:21 49.7143 
2 *591:21 *591:27 7.98403 
3 *591:27 *591:29 63.2679 
4 *591:29 *788:wbs_dat_i[23] 25.3738 
*END

*D_NET *592 0.0311173
*CONN
*P wbs_dat_i[24] I
*I *788:wbs_dat_i[24] I *D afe_wb
*CAP
1 wbs_dat_i[24] 0.00161612
2 *788:wbs_dat_i[24] 0.0011463
3 *592:29 0.00369765
4 *592:27 0.0111094
5 *592:9 0.0101742
6 *788:wbs_dat_i[24] *624:11 0
7 *592:9 *631:13 0
8 *592:27 *615:11 0.000433484
9 *592:27 *618:11 0.00174118
10 *592:27 *620:11 0.00119294
11 *788:wbs_adr_i[24] *788:wbs_dat_i[24] 0
12 *788:wbs_adr_i[25] *592:29 0
13 *119:13 *788:wbs_dat_i[24] 0
14 *559:13 *592:9 0
15 *559:15 *592:9 0
16 *559:21 *788:wbs_dat_i[24] 6.04834e-06
17 *564:13 *592:27 0
18 *582:9 *592:29 0
*RES
1 wbs_dat_i[24] *592:9 34.9904 
2 *592:9 *592:27 35.0338 
3 *592:27 *592:29 51.125 
4 *592:29 *788:wbs_dat_i[24] 25.8062 
*END

*D_NET *593 0.0386451
*CONN
*P wbs_dat_i[25] I
*I *788:wbs_dat_i[25] I *D afe_wb
*CAP
1 wbs_dat_i[25] 0.00599281
2 *788:wbs_dat_i[25] 0.00138808
3 *593:15 0.00412906
4 *593:13 0.00873378
5 *788:wbs_dat_i[25] *625:5 0
6 *593:13 wbs_dat_o[21] 0.00106088
7 *593:15 *625:5 0
8 *788:wbs_adr_i[25] *788:wbs_dat_i[25] 0
9 *788:wbs_adr_i[26] *788:wbs_dat_i[25] 0.000130744
10 *788:wbs_adr_i[26] *593:15 0.00126417
11 *119:13 *788:wbs_dat_i[25] 0
12 *550:13 *593:15 0.00120586
13 *555:13 *593:13 0.00398836
14 *557:13 *593:13 0.000252
15 *558:13 *593:13 0.000703003
16 *559:21 *788:wbs_dat_i[25] 6.04834e-06
17 *560:13 *593:13 0.000610321
18 *562:13 *593:13 0
19 *589:13 *593:13 0.00917999
20 *591:21 *593:13 0
*RES
1 wbs_dat_i[25] *593:13 45.6439 
2 *593:13 *593:15 73.5893 
3 *593:15 *788:wbs_dat_i[25] 26.2386 
*END

*D_NET *594 0.03057
*CONN
*P wbs_dat_i[26] I
*I *788:wbs_dat_i[26] I *D afe_wb
*CAP
1 wbs_dat_i[26] 0.00161174
2 *788:wbs_dat_i[26] 0.00117067
3 *594:17 0.00971097
4 *594:11 0.0109967
5 *594:9 0.00406811
6 *788:wbs_dat_i[26] *626:5 0
7 *594:17 *597:29 0
8 *594:17 *600:29 0
9 *788:wbs_adr_i[26] *788:wbs_dat_i[26] 0
10 *559:21 *594:17 0.00301187
*RES
1 wbs_dat_i[26] *594:9 31.8482 
2 *594:9 *594:11 49.7679 
3 *594:11 *594:17 34.973 
4 *594:17 *788:wbs_dat_i[26] 22.4196 
*END

*D_NET *595 0.0321394
*CONN
*P wbs_dat_i[27] I
*I *788:wbs_dat_i[27] I *D afe_wb
*CAP
1 wbs_dat_i[27] 4.32496e-05
2 *788:wbs_dat_i[27] 0.00221658
3 *595:27 0.0111206
4 *595:7 0.0116344
5 *595:5 0.00277372
6 *788:wbs_dat_i[27] *627:7 0
7 *788:wbs_dat_i[27] *627:9 0
8 *595:27 *617:11 0
9 *788:wbs_adr_i[27] *788:wbs_dat_i[27] 0
10 *561:13 *595:27 0.0043509
11 *588:29 *595:27 0
*RES
1 wbs_dat_i[27] *595:5 0.883929 
2 *595:5 *595:7 54.7679 
3 *595:7 *595:27 41.4412 
4 *595:27 *788:wbs_dat_i[27] 43.6696 
*END

*D_NET *596 0.0319203
*CONN
*P wbs_dat_i[28] I
*I *788:wbs_dat_i[28] I *D afe_wb
*CAP
1 wbs_dat_i[28] 4.32496e-05
2 *788:wbs_dat_i[28] 0.00182746
3 *596:25 0.011191
4 *596:7 0.0127043
5 *596:5 0.00338403
6 *788:wbs_dat_i[28] *628:11 0
7 *596:25 *600:29 0
8 *596:25 *623:11 0.00277022
9 *788:wbs_adr_i[28] *788:wbs_dat_i[28] 0
*RES
1 wbs_dat_i[28] *596:5 0.883929 
2 *596:5 *596:7 67.5179 
3 *596:7 *596:25 42.7859 
4 *596:25 *788:wbs_dat_i[28] 34.5625 
*END

*D_NET *597 0.0329224
*CONN
*P wbs_dat_i[29] I
*I *788:wbs_dat_i[29] I *D afe_wb
*CAP
1 wbs_dat_i[29] 0.00157343
2 *788:wbs_dat_i[29] 0.000887981
3 *597:29 0.00986058
4 *597:11 0.0117029
5 *597:9 0.00430371
6 *788:wbs_dat_i[29] *629:5 0
7 *788:wbs_adr_i[29] *788:wbs_dat_i[29] 0
8 *559:21 *597:29 0
9 *563:17 *597:29 0.00459382
10 *594:17 *597:29 0
*RES
1 wbs_dat_i[29] *597:9 31.8482 
2 *597:9 *597:11 55.8393 
3 *597:11 *597:29 44.6497 
4 *597:29 *788:wbs_dat_i[29] 16.3482 
*END

*D_NET *598 0.0138095
*CONN
*P wbs_dat_i[2] I
*I *788:wbs_dat_i[2] I *D afe_wb
*CAP
1 wbs_dat_i[2] 0.000703341
2 *788:wbs_dat_i[2] 0.00139764
3 *598:15 0.0039505
4 *598:13 0.0032562
5 *788:wbs_dat_i[2] *630:7 0.000222991
6 *598:13 *642:13 0.000193337
7 *598:15 *788:wbs_sel_i[2] 0
8 *598:15 *630:7 0
9 *598:15 *630:9 0.00308798
10 *788:wbs_adr_i[2] *788:wbs_dat_i[2] 0
11 *119:13 *788:wbs_dat_i[2] 0
12 *565:13 *598:15 0.000596499
13 *568:13 *598:13 0.000401035
*RES
1 wbs_dat_i[2] *598:13 14.2969 
2 *598:13 *598:15 79.6607 
3 *598:15 *788:wbs_dat_i[2] 26.0945 
*END

*D_NET *599 0.0525912
*CONN
*P wbs_dat_i[30] I
*I *788:wbs_dat_i[30] I *D afe_wb
*CAP
1 wbs_dat_i[30] 0.0064606
2 *788:wbs_dat_i[30] 0.00139669
3 *599:25 0.00501873
4 *599:23 0.0100826
5 *788:wbs_dat_i[30] *631:11 0
6 *599:23 wbs_dat_o[25] 0.00954942
7 *599:23 wbs_dat_o[27] 0.0132558
8 *599:23 wbs_dat_o[31] 0.00468624
9 *788:wbs_adr_i[30] *788:wbs_dat_i[30] 0
10 *788:wbs_adr_i[31] *599:25 0.00206524
11 *119:13 *788:wbs_dat_i[30] 0
12 *559:21 *788:wbs_dat_i[30] 3.36359e-05
13 *563:17 *788:wbs_dat_i[30] 4.22274e-05
*RES
1 wbs_dat_i[30] *599:23 44.0675 
2 *599:23 *599:25 84.5179 
3 *599:25 *788:wbs_dat_i[30] 26.2386 
*END

*D_NET *600 0.033171
*CONN
*P wbs_dat_i[31] I
*I *788:wbs_dat_i[31] I *D afe_wb
*CAP
1 wbs_dat_i[31] 0.00154903
2 *788:wbs_dat_i[31] 0.0015024
3 *600:29 0.0129169
4 *600:13 0.0135341
5 *600:9 0.00366855
6 *600:29 *623:11 0
7 *788:wbs_adr_i[31] *788:wbs_dat_i[31] 0
8 *594:17 *600:29 0
9 *596:25 *600:29 0
*RES
1 wbs_dat_i[31] *600:9 31.8482 
2 *600:9 *600:13 47.1064 
3 *600:13 *600:29 43.4574 
4 *600:29 *788:wbs_dat_i[31] 28.4911 
*END

*D_NET *601 0.0144735
*CONN
*P wbs_dat_i[3] I
*I *788:wbs_dat_i[3] I *D afe_wb
*CAP
1 wbs_dat_i[3] 0.001122
2 *788:wbs_dat_i[3] 0.00122559
3 *601:15 0.0041808
4 *601:13 0.00407721
5 *788:wbs_dat_i[3] *633:5 0.000261027
6 *601:13 *642:13 0.000330751
7 *601:13 *643:13 0
8 *601:15 *788:wbs_sel_i[3] 0
9 *601:15 *633:5 0.00277257
10 *788:wbs_adr_i[3] *788:wbs_dat_i[3] 0
11 *788:wbs_adr_i[4] *788:wbs_dat_i[3] 0
12 *119:13 *788:wbs_dat_i[3] 0
13 *568:11 *601:13 0
14 *569:25 *601:13 0.000503572
15 *570:29 *601:13 0
*RES
1 wbs_dat_i[3] *601:13 15.6138 
2 *601:13 *601:15 80.2679 
3 *601:15 *788:wbs_dat_i[3] 25.9503 
*END

*D_NET *602 0.0148421
*CONN
*P wbs_dat_i[4] I
*I *788:wbs_dat_i[4] I *D afe_wb
*CAP
1 wbs_dat_i[4] 0.000658839
2 *788:wbs_dat_i[4] 0.00343411
3 *602:11 0.00649345
4 *602:9 0.00371819
5 *788:wbs_dat_i[4] *788:wbs_dat_i[6] 0
6 *788:wbs_dat_i[4] *634:11 0.000537516
7 *788:wbs_dat_i[4] *637:5 0
8 *602:9 wbs_dat_o[4] 0
9 *602:11 *637:5 0
10 *788:wbs_adr_i[4] *788:wbs_dat_i[4] 0
11 *788:wbs_adr_i[7] *788:wbs_dat_i[4] 0
12 *788:wbs_adr_i[7] *602:11 0
*RES
1 wbs_dat_i[4] *602:9 12.9554 
2 *602:9 *602:11 61.7321 
3 *602:11 *788:wbs_dat_i[4] 47.7602 
*END

*D_NET *603 0.0193325
*CONN
*P wbs_dat_i[5] I
*I *788:wbs_dat_i[5] I *D afe_wb
*CAP
1 wbs_dat_i[5] 0.00172333
2 *788:wbs_dat_i[5] 0.00143157
3 *603:25 0.00347003
4 *603:23 0.0037618
5 *788:wbs_dat_i[5] *634:11 0.000189911
6 *788:wbs_dat_i[5] *635:7 0
7 *603:23 wbs_dat_o[5] 0.00178622
8 *603:25 *635:7 0
9 *603:25 *635:9 0.00311293
10 *603:25 *643:13 0.000198051
11 *788:wbs_adr_i[5] *788:wbs_dat_i[5] 0.000190993
12 *788:wbs_adr_i[6] *603:25 0.00331645
13 *119:13 *788:wbs_dat_i[5] 0
14 *569:25 *603:23 0.000151187
*RES
1 wbs_dat_i[5] *603:23 19.1401 
2 *603:23 *603:25 84.5179 
3 *603:25 *788:wbs_dat_i[5] 26.2386 
*END

*D_NET *604 0.0163834
*CONN
*P wbs_dat_i[6] I
*I *788:wbs_dat_i[6] I *D afe_wb
*CAP
1 wbs_dat_i[6] 0.00415556
2 *788:wbs_dat_i[6] 0.00118994
3 *604:27 0.00286935
4 *604:25 0.00170414
5 *604:17 0.00418028
6 *788:wbs_dat_i[6] *634:11 0.000189911
7 *788:wbs_dat_i[6] *636:5 0
8 *604:17 *605:11 0.000293794
9 *604:17 *605:25 0.000289544
10 *604:27 *636:5 0.00151092
11 *788:wbs_adr_i[6] *788:wbs_dat_i[6] 0
12 *788:wbs_dat_i[4] *788:wbs_dat_i[6] 0
13 *119:13 *788:wbs_dat_i[6] 0
14 *544:13 *604:17 0
15 *574:15 *604:17 0
*RES
1 wbs_dat_i[6] *604:17 49.7296 
2 *604:17 *604:25 7.28303 
3 *604:25 *604:27 48.0893 
4 *604:27 *788:wbs_dat_i[6] 25.59 
*END

*D_NET *605 0.020154
*CONN
*P wbs_dat_i[7] I
*I *788:wbs_dat_i[7] I *D afe_wb
*CAP
1 wbs_dat_i[7] 0.00336573
2 *788:wbs_dat_i[7] 0.00125142
3 *605:31 0.0019748
4 *605:25 0.00156409
5 *605:11 0.00420643
6 *788:wbs_dat_i[7] *788:wbs_dat_i[8] 0
7 *788:wbs_dat_i[7] *634:11 0.000442986
8 *788:wbs_dat_i[7] *634:13 0.000120151
9 *788:wbs_dat_i[7] *637:5 0.000116151
10 *605:11 *609:11 0.000808282
11 *605:11 *610:5 0
12 *605:31 *634:13 0.0036653
13 *605:31 *637:5 0.00205531
14 *788:wbs_adr_i[7] *788:wbs_dat_i[7] 0
15 *119:13 *788:wbs_dat_i[7] 0
16 *604:17 *605:11 0.000293794
17 *604:17 *605:25 0.000289544
*RES
1 wbs_dat_i[7] *605:11 49.3496 
2 *605:11 *605:25 11.4194 
3 *605:25 *605:31 48.5466 
4 *605:31 *788:wbs_dat_i[7] 22.4573 
*END

*D_NET *606 0.0174608
*CONN
*P wbs_dat_i[8] I
*I *788:wbs_dat_i[8] I *D afe_wb
*CAP
1 wbs_dat_i[8] 0.00384763
2 *788:wbs_dat_i[8] 0.00104697
3 *606:29 0.00473646
4 *606:27 0.00753712
5 *788:wbs_dat_i[8] *638:11 0
6 *788:wbs_adr_i[8] *788:wbs_dat_i[8] 0
7 *788:wbs_adr_i[8] *606:29 0
8 *788:wbs_dat_i[7] *788:wbs_dat_i[8] 0
9 *119:13 *788:wbs_dat_i[8] 0
10 *544:11 *606:27 0
11 *571:13 *606:27 0.000292596
12 *573:13 *606:27 0
13 *580:13 *606:27 0
*RES
1 wbs_dat_i[8] *606:27 28.54 
2 *606:27 *606:29 75.4107 
3 *606:29 *788:wbs_dat_i[8] 25.3738 
*END

*D_NET *607 0.0180271
*CONN
*P wbs_dat_i[9] I
*I *788:wbs_dat_i[9] I *D afe_wb
*CAP
1 wbs_dat_i[9] 0.00160237
2 *788:wbs_dat_i[9] 0.00520897
3 *607:13 0.00741116
4 *607:9 0.00380456
5 *788:wbs_dat_i[9] *639:5 0
6 *607:13 *614:5 0
7 *788:wbs_adr_i[15] *607:9 0
8 *788:wbs_adr_i[15] *607:13 0
9 *788:wbs_adr_i[9] *788:wbs_dat_i[9] 0
10 *574:15 *607:9 0
11 *582:21 *607:13 0
*RES
1 wbs_dat_i[9] *607:9 31.2411 
2 *607:9 *607:13 47.1064 
3 *607:13 *788:wbs_dat_i[9] 47.7374 
*END

*D_NET *608 0.0104204
*CONN
*P wbs_dat_o[0] O
*I *788:wbs_dat_o[0] O *D afe_wb
*CAP
1 wbs_dat_o[0] 0.00157889
2 *788:wbs_dat_o[0] 7.96333e-05
3 *608:9 0.00513055
4 *608:7 0.0036313
5 *608:7 *788:wbs_sel_i[0] 0
6 *608:9 *788:wbs_sel_i[0] 0
7 *788:wbs_dat_i[0] *608:7 0
8 *576:9 wbs_dat_o[0] 0
9 *576:11 *608:9 0
*RES
1 *788:wbs_dat_o[0] *608:7 1.5 
2 *608:7 *608:9 71.0179 
3 *608:9 wbs_dat_o[0] 32.0625 
*END

*D_NET *609 0.0197247
*CONN
*P wbs_dat_o[10] O
*I *788:wbs_dat_o[10] O *D afe_wb
*CAP
1 wbs_dat_o[10] 0.00203784
2 *788:wbs_dat_o[10] 0.00314739
3 *609:11 0.00510746
4 *609:5 0.00621702
5 wbs_dat_o[10] *616:5 0
6 *788:wbs_adr_i[11] *609:5 0
7 *788:wbs_dat_i[10] *609:5 0.000261027
8 *574:15 *609:11 0
9 *577:11 *609:11 0.00124069
10 *577:27 *609:11 0.000284325
11 *577:29 *609:5 0
12 *581:25 *609:11 0.000620662
13 *582:13 *609:11 0
14 *605:11 *609:11 0.000808282
*RES
1 *788:wbs_dat_o[10] *609:5 63.0982 
2 *609:5 *609:11 18.3256 
3 *609:11 wbs_dat_o[10] 39.6696 
*END

*D_NET *610 0.0227291
*CONN
*P wbs_dat_o[11] O
*I *788:wbs_dat_o[11] O *D afe_wb
*CAP
1 wbs_dat_o[11] 0.0035813
2 *788:wbs_dat_o[11] 0.00434234
3 *610:5 0.00792365
4 *788:wbs_adr_i[12] *610:5 0
5 *788:wbs_dat_i[11] *610:5 0
6 *544:11 wbs_dat_o[11] 0.00504523
7 *572:13 *610:5 0
8 *578:29 *610:5 0.0018366
9 *605:11 *610:5 0
*RES
1 *788:wbs_dat_o[11] *610:5 102.562 
2 *610:5 wbs_dat_o[11] 21.0399 
*END

*D_NET *611 0.0271881
*CONN
*P wbs_dat_o[12] O
*I *788:wbs_dat_o[12] O *D afe_wb
*CAP
1 wbs_dat_o[12] 0.00193892
2 *788:wbs_dat_o[12] 0.00267779
3 *611:11 0.00392834
4 *611:5 0.00466721
5 wbs_dat_o[12] *620:5 0
6 *611:11 *612:15 0.00747849
7 *788:wbs_adr_i[13] *611:5 0
8 *788:wbs_dat_i[12] *611:5 0.000261027
9 *574:15 *611:11 0.000289498
10 *577:11 *611:11 0.00250235
11 *579:15 *611:5 0.00155644
12 *581:25 *611:11 0.00188801
*RES
1 *788:wbs_dat_o[12] *611:5 66.7411 
2 *611:5 *611:11 20.3435 
3 *611:11 wbs_dat_o[12] 36.4375 
*END

*D_NET *612 0.0314957
*CONN
*P wbs_dat_o[13] O
*I *788:wbs_dat_o[13] O *D afe_wb
*CAP
1 wbs_dat_o[13] 0.000661968
2 *788:wbs_dat_o[13] 0.00344292
3 *612:15 0.00381146
4 *612:5 0.00659241
5 wbs_dat_o[13] *622:5 0
6 *612:15 *613:11 0.0083757
7 *612:15 *622:5 0
8 *788:wbs_adr_i[14] *612:5 0
9 *788:wbs_adr_i[22] *612:15 0
10 *788:wbs_dat_i[13] *612:5 0
11 *548:13 wbs_dat_o[13] 0
12 *574:15 *612:15 0.00041154
13 *580:15 *612:5 0
14 *581:25 *612:15 0.000721229
15 *611:11 *612:15 0.00747849
*RES
1 *788:wbs_dat_o[13] *612:5 67.3482 
2 *612:5 *612:15 45.6419 
3 *612:15 wbs_dat_o[13] 12.4196 
*END

*D_NET *613 0.0345247
*CONN
*P wbs_dat_o[14] O
*I *788:wbs_dat_o[14] O *D afe_wb
*CAP
1 wbs_dat_o[14] 0.00187093
2 *788:wbs_dat_o[14] 0.00256027
3 *613:11 0.00424337
4 *613:5 0.0049327
5 *613:11 *615:11 0.00773095
6 *788:wbs_adr_i[15] *613:5 0
7 *788:wbs_dat_i[14] *613:5 0.000254093
8 *574:15 *613:11 9.55055e-05
9 *581:25 *613:11 0.000556413
10 *581:27 *613:5 0.00390481
11 *591:29 wbs_dat_o[14] 0
12 *612:15 *613:11 0.0083757
*RES
1 *788:wbs_dat_o[14] *613:5 67.9554 
2 *613:5 *613:11 22.5055 
3 *613:11 wbs_dat_o[14] 34.8125 
*END

*D_NET *614 0.0236957
*CONN
*P wbs_dat_o[15] O
*I *788:wbs_dat_o[15] O *D afe_wb
*CAP
1 wbs_dat_o[15] 0.00696946
2 *788:wbs_dat_o[15] 0.0034419
3 *614:5 0.0104114
4 wbs_dat_o[15] *625:5 0
5 *788:wbs_adr_i[16] *614:5 0
6 *788:wbs_adr_i[25] wbs_dat_o[15] 0
7 *788:wbs_dat_i[15] *614:5 0.000254093
8 *552:13 wbs_dat_o[15] 0
9 *578:25 wbs_dat_o[15] 0
10 *582:21 *614:5 0.00193086
11 *591:21 wbs_dat_o[15] 0.00030874
12 *591:27 wbs_dat_o[15] 0.00037933
13 *607:13 *614:5 0
*RES
1 *788:wbs_dat_o[15] *614:5 81.3125 
2 *614:5 wbs_dat_o[15] 45.0418 
*END

*D_NET *615 0.0344721
*CONN
*P wbs_dat_o[16] O
*I *788:wbs_dat_o[16] O *D afe_wb
*CAP
1 wbs_dat_o[16] 0.0013709
2 *788:wbs_dat_o[16] 0.00340641
3 *615:11 0.00457888
4 *615:5 0.00661439
5 wbs_dat_o[16] *626:5 0
6 *615:11 *618:11 0.00805436
7 *788:wbs_adr_i[17] *615:5 0
8 *788:wbs_adr_i[27] wbs_dat_o[16] 0.00203871
9 *788:wbs_dat_i[16] *615:5 0
10 *577:11 *615:5 0.00024406
11 *592:27 *615:11 0.000433484
12 *613:11 *615:11 0.00773095
*RES
1 *788:wbs_dat_o[16] *615:5 68.5625 
2 *615:5 *615:11 24.6675 
3 *615:11 wbs_dat_o[16] 34.2054 
*END

*D_NET *616 0.0311039
*CONN
*P wbs_dat_o[17] O
*I *788:wbs_dat_o[17] O *D afe_wb
*CAP
1 wbs_dat_o[17] 0.00338331
2 *788:wbs_dat_o[17] 0.00380494
3 *616:5 0.00718824
4 wbs_dat_o[10] *616:5 0
5 *788:wbs_adr_i[18] *616:5 0
6 *788:wbs_dat_i[17] *616:5 0.000261027
7 *545:13 *616:5 0
8 *549:13 wbs_dat_o[17] 0.0072019
9 *553:15 wbs_dat_o[17] 0
10 *558:13 wbs_dat_o[17] 0.000327523
11 *560:13 wbs_dat_o[17] 0.00128304
12 *562:13 wbs_dat_o[17] 0.00172695
13 *584:27 wbs_dat_o[17] 0.00363545
14 *584:29 *616:5 0.00229151
15 *590:27 wbs_dat_o[17] 0
*RES
1 *788:wbs_dat_o[17] *616:5 94.6696 
2 *616:5 wbs_dat_o[17] 33.7746 
*END

*D_NET *617 0.032112
*CONN
*P wbs_dat_o[18] O
*I *788:wbs_dat_o[18] O *D afe_wb
*CAP
1 wbs_dat_o[18] 4.32496e-05
2 *788:wbs_dat_o[18] 0.00261132
3 *617:13 0.00272758
4 *617:11 0.00657546
5 *617:5 0.00650244
6 *788:wbs_adr_i[19] *617:5 0
7 *788:wbs_adr_i[30] *617:13 0
8 *788:wbs_dat_i[18] *617:5 0
9 *551:13 *617:11 0.00976877
10 *553:17 *617:5 0
11 *561:13 *617:11 0
12 *583:29 *617:11 0.00271768
13 *585:13 *617:13 0
14 *585:15 *617:5 0
15 *588:29 *617:11 0.00116551
16 *595:27 *617:11 0
*RES
1 *788:wbs_dat_o[18] *617:5 50.9554 
2 *617:5 *617:11 26.8295 
3 *617:11 *617:13 51.125 
4 *617:13 wbs_dat_o[18] 0.883929 
*END

*D_NET *618 0.0336642
*CONN
*P wbs_dat_o[19] O
*I *788:wbs_dat_o[19] O *D afe_wb
*CAP
1 wbs_dat_o[19] 0.00184219
2 *788:wbs_dat_o[19] 0.00256375
3 *618:11 0.00712698
4 *618:5 0.00784855
5 *618:11 *620:11 0
6 *788:wbs_adr_i[20] *618:5 0
7 *788:wbs_dat_i[19] *618:5 0.000254093
8 *567:13 *618:11 0
9 *586:29 *618:5 0.00423307
10 *592:27 *618:11 0.00174118
11 *615:11 *618:11 0.00805436
*RES
1 *788:wbs_dat_o[19] *618:5 69.1696 
2 *618:5 *618:11 27.6943 
3 *618:11 wbs_dat_o[19] 34.0089 
*END

*D_NET *619 0.011628
*CONN
*P wbs_dat_o[1] O
*I *788:wbs_dat_o[1] O *D afe_wb
*CAP
1 wbs_dat_o[1] 0.000699604
2 *788:wbs_dat_o[1] 0.00457431
3 *619:5 0.00527391
4 wbs_dat_o[1] *788:wbs_sel_i[1] 0
5 wbs_dat_o[1] *641:11 0
6 *619:5 *788:wbs_sel_i[1] 0
7 *788:wbs_dat_i[1] *619:5 0
8 *587:9 *619:5 0.00108014
*RES
1 *788:wbs_dat_o[1] *619:5 97.0982 
2 *619:5 wbs_dat_o[1] 13.8842 
*END

*D_NET *620 0.0300548
*CONN
*P wbs_dat_o[20] O
*I *788:wbs_dat_o[20] O *D afe_wb
*CAP
1 wbs_dat_o[20] 0.00152124
2 *788:wbs_dat_o[20] 0.0038193
3 *620:11 0.00812191
4 *620:5 0.01042
5 wbs_dat_o[12] *620:5 0
6 *788:wbs_adr_i[21] *620:5 0
7 *788:wbs_dat_i[20] *620:5 0
8 *556:13 wbs_dat_o[20] 0
9 *564:13 *620:11 0.00497948
10 *591:27 *620:11 0
11 *592:27 *620:11 0.00119294
12 *618:11 *620:11 0
*RES
1 *788:wbs_dat_o[20] *620:5 74.6339 
2 *620:5 *620:11 29.2077 
3 *620:11 wbs_dat_o[20] 28.3304 
*END

*D_NET *621 0.0427917
*CONN
*P wbs_dat_o[21] O
*I *788:wbs_dat_o[21] O *D afe_wb
*CAP
1 wbs_dat_o[21] 0.00317794
2 *788:wbs_dat_o[21] 0.00369059
3 *621:5 0.00686853
4 *788:wbs_adr_i[22] *621:5 0
5 *788:wbs_dat_i[21] *621:5 0
6 *548:13 wbs_dat_o[21] 0.000579005
7 *549:13 wbs_dat_o[21] 0.000142228
8 *555:13 wbs_dat_o[21] 0.011752
9 *558:13 wbs_dat_o[21] 0.0132293
10 *580:13 *621:5 8.10544e-05
11 *589:15 *621:5 0.00221029
12 *593:13 wbs_dat_o[21] 0.00106088
*RES
1 *788:wbs_dat_o[21] *621:5 92.2411 
2 *621:5 wbs_dat_o[21] 40.3831 
*END

*D_NET *622 0.0452801
*CONN
*P wbs_dat_o[22] O
*I *788:wbs_dat_o[22] O *D afe_wb
*CAP
1 wbs_dat_o[22] 0.00293589
2 *788:wbs_dat_o[22] 0.00375255
3 *622:5 0.00668845
4 wbs_dat_o[22] wbs_dat_o[25] 0.012081
5 wbs_dat_o[22] wbs_dat_o[29] 0.000222356
6 wbs_dat_o[13] *622:5 0
7 *788:wbs_adr_i[23] *622:5 0
8 *788:wbs_dat_i[22] *622:5 0.000261027
9 *548:13 *622:5 0.000545627
10 *553:15 wbs_dat_o[22] 0.00188074
11 *584:27 wbs_dat_o[22] 0
12 *590:27 wbs_dat_o[22] 0.0133117
13 *590:29 *622:5 0.00360069
14 *612:15 *622:5 0
*RES
1 *788:wbs_dat_o[22] *622:5 100.134 
2 *622:5 wbs_dat_o[22] 33.5712 
*END

*D_NET *623 0.0279519
*CONN
*P wbs_dat_o[23] O
*I *788:wbs_dat_o[23] O *D afe_wb
*CAP
1 wbs_dat_o[23] 4.43439e-05
2 *788:wbs_dat_o[23] 0.00165936
3 *623:13 0.00363506
4 *623:11 0.0108871
5 *623:7 0.00895575
6 *788:wbs_adr_i[24] *623:7 0
7 *788:wbs_dat_i[23] *623:7 0
8 *591:29 *623:7 0
9 *596:25 *623:11 0.00277022
10 *600:29 *623:11 0
*RES
1 *788:wbs_dat_o[23] *623:7 35.5439 
2 *623:7 *623:11 28.6083 
3 *623:11 *623:13 69.3393 
4 *623:13 wbs_dat_o[23] 0.883929 
*END

*D_NET *624 0.0463718
*CONN
*P wbs_dat_o[24] O
*I *788:wbs_dat_o[24] O *D afe_wb
*CAP
1 wbs_dat_o[24] 0.00106601
2 *788:wbs_dat_o[24] 0.00401504
3 *624:13 0.0058306
4 *624:11 0.00877963
5 wbs_dat_o[24] wbs_dat_o[29] 0.00143834
6 wbs_dat_o[24] *631:13 0
7 wbs_dat_o[24] *632:17 0
8 *624:11 *628:11 0.00977699
9 *788:wbs_dat_i[24] *624:11 0
10 *110:13 *624:11 0.00165199
11 *113:19 *624:11 0.00291483
12 *120:13 *624:11 0.0100331
13 *558:13 *624:13 0
14 *562:13 wbs_dat_o[24] 0.000486234
15 *591:21 *624:13 0.000379056
*RES
1 *788:wbs_dat_o[24] *624:11 29.626 
2 *624:11 *624:13 96.6607 
3 *624:13 wbs_dat_o[24] 16.5003 
*END

*D_NET *625 0.0481808
*CONN
*P wbs_dat_o[25] O
*I *788:wbs_dat_o[25] O *D afe_wb
*CAP
1 wbs_dat_o[25] 0.00328921
2 *788:wbs_dat_o[25] 0.00516803
3 *625:5 0.00845723
4 wbs_dat_o[25] wbs_dat_o[27] 0.00130788
5 wbs_dat_o[25] wbs_dat_o[28] 0.000282289
6 wbs_dat_o[25] wbs_dat_o[29] 0.000617135
7 wbs_dat_o[25] wbs_dat_o[30] 0.000358539
8 wbs_dat_o[25] wbs_dat_o[31] 0.0015509
9 wbs_dat_o[15] *625:5 0
10 wbs_dat_o[22] wbs_dat_o[25] 0.012081
11 *788:wbs_adr_i[26] *625:5 0
12 *788:wbs_dat_i[25] *625:5 0
13 *550:9 *625:5 0
14 *553:15 wbs_dat_o[25] 0.00551916
15 *593:15 *625:5 0
16 *599:23 wbs_dat_o[25] 0.00954942
*RES
1 *788:wbs_dat_o[25] *625:5 100.741 
2 *625:5 wbs_dat_o[25] 36.0629 
*END

*D_NET *626 0.0295788
*CONN
*P wbs_dat_o[26] O
*I *788:wbs_dat_o[26] O *D afe_wb
*CAP
1 wbs_dat_o[26] 0.00111174
2 *788:wbs_dat_o[26] 0.00411152
3 *626:11 0.00951809
4 *626:5 0.0125179
5 wbs_dat_o[16] *626:5 0
6 *788:wbs_adr_i[27] *626:5 0
7 *788:wbs_dat_i[26] *626:5 0
8 *564:13 *626:11 0
9 *583:7 *626:5 0
10 *591:21 *626:11 0.00231957
*RES
1 *788:wbs_dat_o[26] *626:5 81.3125 
2 *626:5 *626:11 35.0451 
3 *626:11 wbs_dat_o[26] 21.8661 
*END

*D_NET *627 0.0444559
*CONN
*P wbs_dat_o[27] O
*I *788:wbs_dat_o[27] O *D afe_wb
*CAP
1 wbs_dat_o[27] 0.00610415
2 *788:wbs_dat_o[27] 0.00153808
3 *627:9 0.00987597
4 *627:7 0.0053099
5 wbs_dat_o[25] wbs_dat_o[27] 0.00130788
6 *788:wbs_adr_i[28] *627:7 0
7 *788:wbs_dat_i[27] *627:7 0
8 *788:wbs_dat_i[27] *627:9 0
9 *551:7 *627:9 0
10 *553:15 wbs_dat_o[27] 0.0031991
11 *584:27 *627:9 0
12 *586:27 wbs_dat_o[27] 0.0038651
13 *599:23 wbs_dat_o[27] 0.0132558
*RES
1 *788:wbs_dat_o[27] *627:7 29.8839 
2 *627:7 *627:9 73.1429 
3 *627:9 wbs_dat_o[27] 37.7421 
*END

*D_NET *628 0.0635566
*CONN
*P wbs_dat_o[28] O
*I *788:wbs_dat_o[28] O *D afe_wb
*CAP
1 wbs_dat_o[28] 0.0014535
2 *788:wbs_dat_o[28] 0.00283109
3 *628:13 0.00513333
4 *628:11 0.00651091
5 wbs_dat_o[28] wbs_dat_o[29] 0.00829197
6 wbs_dat_o[28] wbs_dat_o[30] 0.007552
7 *628:11 *631:11 0.00894974
8 wbs_dat_o[25] wbs_dat_o[28] 0.000282289
9 *788:wbs_dat_i[28] *628:11 0
10 *110:13 *628:11 0.00123864
11 *110:21 *628:11 0.00316645
12 *112:21 *628:11 0.00171564
13 *113:19 *628:11 0.00214353
14 *559:13 *628:13 0.00217585
15 *559:15 *628:13 0.00233465
16 *624:11 *628:11 0.00977699
*RES
1 *788:wbs_dat_o[28] *628:11 25.4768 
2 *628:11 *628:13 97.875 
3 *628:13 wbs_dat_o[28] 23.6151 
*END

*D_NET *629 0.0402821
*CONN
*P wbs_dat_o[29] O
*I *788:wbs_dat_o[29] O *D afe_wb
*CAP
1 wbs_dat_o[29] 0.00733404
2 *788:wbs_dat_o[29] 0.00505465
3 *629:5 0.0123887
4 wbs_dat_o[29] wbs_dat_o[30] 0.00100872
5 wbs_dat_o[22] wbs_dat_o[29] 0.000222356
6 wbs_dat_o[24] wbs_dat_o[29] 0.00143834
7 wbs_dat_o[25] wbs_dat_o[29] 0.000617135
8 wbs_dat_o[28] wbs_dat_o[29] 0.00829197
9 *788:wbs_adr_i[30] *629:5 0
10 *788:wbs_dat_i[29] *629:5 0
11 *562:13 wbs_dat_o[29] 0
12 *585:13 *629:5 0
13 *590:27 wbs_dat_o[29] 0.00392621
*RES
1 *788:wbs_dat_o[29] *629:5 98.3125 
2 *629:5 wbs_dat_o[29] 42.7434 
*END

*D_NET *630 0.0131445
*CONN
*P wbs_dat_o[2] O
*I *788:wbs_dat_o[2] O *D afe_wb
*CAP
1 wbs_dat_o[2] 0.000764932
2 *788:wbs_dat_o[2] 0.00151977
3 *630:9 0.00325652
4 *630:7 0.00401136
5 *630:7 *788:wbs_sel_i[2] 0
6 *788:wbs_dat_i[2] *630:7 0.000222991
7 *565:13 *630:9 0
8 *568:11 wbs_dat_o[2] 0.000280966
9 *598:15 *630:7 0
10 *598:15 *630:9 0.00308798
*RES
1 *788:wbs_dat_o[2] *630:7 29.8839 
2 *630:7 *630:9 72.9911 
3 *630:9 wbs_dat_o[2] 23.4286 
*END

*D_NET *631 0.0576689
*CONN
*P wbs_dat_o[30] O
*I *788:wbs_dat_o[30] O *D afe_wb
*CAP
1 wbs_dat_o[30] 0.00223009
2 *788:wbs_dat_o[30] 0.00174289
3 *631:13 0.00718116
4 *631:11 0.00669395
5 wbs_dat_o[30] wbs_dat_o[31] 0.010413
6 *631:11 *632:15 0.00860293
7 wbs_dat_o[24] *631:13 0
8 wbs_dat_o[25] wbs_dat_o[30] 0.000358539
9 wbs_dat_o[28] wbs_dat_o[30] 0.007552
10 wbs_dat_o[29] wbs_dat_o[30] 0.00100872
11 *788:wbs_dat_i[30] *631:11 0
12 *109:13 *631:11 2.91117e-05
13 *110:13 *631:11 0.00104151
14 *113:19 *631:11 0.0018652
15 *592:9 *631:13 0
16 *628:11 *631:11 0.00894974
*RES
1 *788:wbs_dat_o[30] *631:11 23.7778 
2 *631:11 *631:13 97.875 
3 *631:13 wbs_dat_o[30] 27.7427 
*END

*D_NET *632 0.056196
*CONN
*P wbs_dat_o[31] O
*I *788:wbs_dat_o[31] O *D afe_wb
*CAP
1 wbs_dat_o[31] 0.00305961
2 *788:wbs_dat_o[31] 0.00181993
3 *632:17 0.00814775
4 *632:15 0.00690807
5 wbs_dat_o[24] *632:17 0
6 wbs_dat_o[25] wbs_dat_o[31] 0.0015509
7 wbs_dat_o[30] wbs_dat_o[31] 0.010413
8 *109:13 *632:15 0.00906209
9 *110:19 *632:15 5.45025e-05
10 *113:19 *632:15 0.00189098
11 *560:13 *632:17 0
12 *599:23 wbs_dat_o[31] 0.00468624
13 *631:11 *632:15 0.00860293
*RES
1 *788:wbs_dat_o[31] *632:15 24.0214 
2 *632:15 *632:17 97.875 
3 *632:17 wbs_dat_o[31] 28.5986 
*END

*D_NET *633 0.0139504
*CONN
*P wbs_dat_o[3] O
*I *788:wbs_dat_o[3] O *D afe_wb
*CAP
1 wbs_dat_o[3] 0.00256403
2 *788:wbs_dat_o[3] 0.00289435
3 *633:5 0.00545838
4 wbs_dat_o[3] *635:9 0
5 *633:5 *788:wbs_sel_i[3] 0
6 *788:wbs_dat_i[3] *633:5 0.000261027
7 *570:29 wbs_dat_o[3] 0
8 *601:15 *633:5 0.00277257
*RES
1 *788:wbs_dat_o[3] *633:5 77.6696 
2 *633:5 wbs_dat_o[3] 35.7847 
*END

*D_NET *634 0.0174469
*CONN
*P wbs_dat_o[4] O
*I *788:wbs_dat_o[4] O *D afe_wb
*CAP
1 wbs_dat_o[4] 0.00144867
2 *788:wbs_dat_o[4] 0.00214865
3 *634:13 0.00339912
4 *634:11 0.0040991
5 wbs_dat_o[4] *637:5 0.000412968
6 *634:13 *637:5 0.000508885
7 *788:wbs_adr_i[5] *634:11 0.000283712
8 *788:wbs_adr_i[8] wbs_dat_o[4] 0
9 *788:wbs_adr_i[8] *634:13 0
10 *788:wbs_dat_i[4] *634:11 0.000537516
11 *788:wbs_dat_i[5] *634:11 0.000189911
12 *788:wbs_dat_i[6] *634:11 0.000189911
13 *788:wbs_dat_i[7] *634:11 0.000442986
14 *788:wbs_dat_i[7] *634:13 0.000120151
15 *119:13 *634:11 0
16 *602:9 wbs_dat_o[4] 0
17 *605:31 *634:13 0.0036653
*RES
1 *788:wbs_dat_o[4] *634:11 23.1559 
2 *634:11 *634:13 61.3036 
3 *634:13 wbs_dat_o[4] 32.0982 
*END

*D_NET *635 0.0180388
*CONN
*P wbs_dat_o[5] O
*I *788:wbs_dat_o[5] O *D afe_wb
*CAP
1 wbs_dat_o[5] 0.00155436
2 *788:wbs_dat_o[5] 0.00159841
3 *635:9 0.00418749
4 *635:7 0.00423154
5 wbs_dat_o[3] *635:9 0
6 *788:wbs_adr_i[6] *635:7 0
7 *788:wbs_dat_i[5] *635:7 0
8 *570:27 wbs_dat_o[5] 0.00156782
9 *570:29 *635:7 0
10 *603:23 wbs_dat_o[5] 0.00178622
11 *603:25 *635:7 0
12 *603:25 *635:9 0.00311293
*RES
1 *788:wbs_dat_o[5] *635:7 30.7054 
2 *635:7 *635:9 73.1429 
3 *635:9 wbs_dat_o[5] 14.4098 
*END

*D_NET *636 0.018347
*CONN
*P wbs_dat_o[6] O
*I *788:wbs_dat_o[6] O *D afe_wb
*CAP
1 wbs_dat_o[6] 0.0028223
2 *788:wbs_dat_o[6] 0.00331342
3 *636:5 0.00613572
4 *788:wbs_adr_i[7] *636:5 0
5 *788:wbs_dat_i[6] *636:5 0
6 *545:13 wbs_dat_o[6] 0
7 *572:13 wbs_dat_o[6] 0.00456467
8 *604:27 *636:5 0.00151092
*RES
1 *788:wbs_dat_o[6] *636:5 80.0982 
2 *636:5 wbs_dat_o[6] 37.3721 
*END

*D_NET *637 0.0195848
*CONN
*P wbs_dat_o[7] O
*I *788:wbs_dat_o[7] O *D afe_wb
*CAP
1 wbs_dat_o[7] 0.00313089
2 *788:wbs_dat_o[7] 0.00302753
3 *637:5 0.00615842
4 wbs_dat_o[4] *637:5 0.000412968
5 *788:wbs_adr_i[8] *637:5 0
6 *788:wbs_dat_i[4] *637:5 0
7 *788:wbs_dat_i[7] *637:5 0.000116151
8 *545:13 wbs_dat_o[7] 0
9 *572:13 wbs_dat_o[7] 0.00417463
10 *573:13 wbs_dat_o[7] 0
11 *578:25 wbs_dat_o[7] 0
12 *579:15 wbs_dat_o[7] 0
13 *602:11 *637:5 0
14 *605:31 *637:5 0.00205531
15 *634:13 *637:5 0.000508885
*RES
1 *788:wbs_dat_o[7] *637:5 81.3125 
2 *637:5 wbs_dat_o[7] 37.0207 
*END

*D_NET *638 0.0188348
*CONN
*P wbs_dat_o[8] O
*I *788:wbs_dat_o[8] O *D afe_wb
*CAP
1 wbs_dat_o[8] 0.00129019
2 *788:wbs_dat_o[8] 0.00288207
3 *638:13 0.0044337
4 *638:11 0.00602558
5 *788:wbs_adr_i[14] wbs_dat_o[8] 0.000645603
6 *788:wbs_adr_i[14] *638:13 0
7 *788:wbs_adr_i[9] *638:11 0
8 *788:wbs_dat_i[10] *638:11 0.000127758
9 *788:wbs_dat_i[11] *638:11 4.99404e-05
10 *788:wbs_dat_i[12] *638:11 0.000127758
11 *788:wbs_dat_i[13] *638:11 2.27249e-05
12 *788:wbs_dat_i[14] *638:13 7.83929e-05
13 *788:wbs_dat_i[8] *638:11 0
14 *119:13 *638:11 0.00315112
15 *581:27 *638:13 0
*RES
1 *788:wbs_dat_o[8] *638:11 24.3001 
2 *638:11 *638:13 64.3393 
3 *638:13 wbs_dat_o[8] 31.2411 
*END

*D_NET *639 0.0220455
*CONN
*P wbs_dat_o[9] O
*I *788:wbs_dat_o[9] O *D afe_wb
*CAP
1 wbs_dat_o[9] 0.00335476
2 *788:wbs_dat_o[9] 0.00437758
3 *639:5 0.00773233
4 *788:wbs_adr_i[10] *639:5 0
5 *788:wbs_dat_i[9] *639:5 0
6 *544:13 *639:5 0
7 *547:13 wbs_dat_o[9] 0.00293744
8 *573:13 wbs_dat_o[9] 0.00359643
9 *579:13 wbs_dat_o[9] 4.69663e-05
*RES
1 *788:wbs_dat_o[9] *639:5 87.3839 
2 *639:5 wbs_dat_o[9] 32.7006 
*END

*D_NET *640 0.010276
*CONN
*P wbs_sel_i[0] I
*I *788:wbs_sel_i[0] I *D afe_wb
*CAP
1 wbs_sel_i[0] 0.000843015
2 *788:wbs_sel_i[0] 0.00429498
3 *640:13 0.00513799
4 *788:wbs_adr_i[1] *788:wbs_sel_i[0] 0
5 *554:7 *640:13 0
6 *608:7 *788:wbs_sel_i[0] 0
7 *608:9 *788:wbs_sel_i[0] 0
*RES
1 wbs_sel_i[0] *640:13 17.5982 
2 *640:13 *788:wbs_sel_i[0] 87.3839 
*END

*D_NET *641 0.0113068
*CONN
*P wbs_sel_i[1] I
*I *788:wbs_sel_i[1] I *D afe_wb
*CAP
1 wbs_sel_i[1] 0.000579614
2 *788:wbs_sel_i[1] 0.00507379
3 *641:11 0.0056534
4 wbs_dat_o[1] *788:wbs_sel_i[1] 0
5 wbs_dat_o[1] *641:11 0
6 *788:wbs_adr_i[2] *788:wbs_sel_i[1] 0
7 *587:9 *788:wbs_sel_i[1] 0
8 *619:5 *788:wbs_sel_i[1] 0
*RES
1 wbs_sel_i[1] *641:11 9.53091 
2 *641:11 *788:wbs_sel_i[1] 101.348 
*END

*D_NET *642 0.0134154
*CONN
*P wbs_sel_i[2] I
*I *788:wbs_sel_i[2] I *D afe_wb
*CAP
1 wbs_sel_i[2] 0.00090108
2 *788:wbs_sel_i[2] 0.00458455
3 *642:13 0.00548563
4 *788:wbs_adr_i[3] *788:wbs_sel_i[2] 0
5 *565:13 *788:wbs_sel_i[2] 0.00166317
6 *568:11 *642:13 0.000254055
7 *569:27 *642:13 2.83284e-06
8 *598:13 *642:13 0.000193337
9 *598:15 *788:wbs_sel_i[2] 0
10 *601:13 *642:13 0.000330751
11 *630:7 *788:wbs_sel_i[2] 0
*RES
1 wbs_sel_i[2] *642:13 14.0609 
2 *642:13 *788:wbs_sel_i[2] 98.3125 
*END

*D_NET *643 0.0134296
*CONN
*P wbs_sel_i[3] I
*I *788:wbs_sel_i[3] I *D afe_wb
*CAP
1 wbs_sel_i[3] 0.00199487
2 *788:wbs_sel_i[3] 0.00448792
3 *643:13 0.00648279
4 *788:wbs_adr_i[4] *788:wbs_sel_i[3] 0
5 *788:wbs_adr_i[6] *643:13 0.000255079
6 *569:27 *788:wbs_sel_i[3] 0
7 *571:13 *643:13 1.08895e-05
8 *601:13 *643:13 0
9 *601:15 *788:wbs_sel_i[3] 0
10 *603:25 *643:13 0.000198051
11 *633:5 *788:wbs_sel_i[3] 0
*RES
1 wbs_sel_i[3] *643:13 22.7159 
2 *643:13 *788:wbs_sel_i[3] 91.0268 
*END

*D_NET *644 0.0127999
*CONN
*P wbs_stb_i I
*I *788:wbs_stb_i I *D afe_wb
*CAP
1 wbs_stb_i 0.0015112
2 *788:wbs_stb_i 0.000365046
3 *644:11 0.003649
4 *644:9 0.00479515
5 *788:wbs_stb_i *788:wbs_we_i 0.000454083
6 *788:wbs_stb_i *645:11 2.69575e-05
7 *788:wb_clk_i *644:11 0
8 *788:wb_rst_i *644:11 0.000547886
9 *788:wbs_cyc_i *788:wbs_stb_i 0.000165055
10 *110:13 *788:wbs_stb_i 0.000691338
11 *120:13 *788:wbs_stb_i 0.000327943
12 *542:11 *788:wbs_stb_i 0.000266273
*RES
1 wbs_stb_i *644:9 31.2411 
2 *644:9 *644:11 70.4107 
3 *644:11 *788:wbs_stb_i 17.1852 
*END

*D_NET *645 0.0118696
*CONN
*P wbs_we_i I
*I *788:wbs_we_i I *D afe_wb
*CAP
1 wbs_we_i 0.0015112
2 *788:wbs_we_i 0.000208506
3 *645:11 0.00370802
4 *645:9 0.00501071
5 *788:wbs_adr_i[0] *788:wbs_we_i 0
6 *788:wbs_cyc_i *788:wbs_we_i 5.11642e-05
7 *788:wbs_stb_i *788:wbs_we_i 0.000454083
8 *788:wbs_stb_i *645:11 2.69575e-05
9 *110:13 *788:wbs_we_i 0.000394731
10 *112:21 *788:wbs_we_i 0.000264176
11 *120:13 *788:wbs_we_i 0.000240038
*RES
1 wbs_we_i *645:9 31.2411 
2 *645:9 *645:11 71.0179 
3 *645:11 *788:wbs_we_i 9.22574 
*END

*D_NET *646 0.267786
*CONN
*I *788:adc_data[0] I *D afe_wb
*I *789:data_out[0] O *D CF_ADC_SAR12
*CAP
1 *788:adc_data[0] 0.00137927
2 *789:data_out[0] 7.90664e-05
3 *646:21 0.0185616
4 *646:19 0.0171823
5 *646:17 0.0116925
6 *646:15 0.0116925
7 *646:13 0.0139606
8 *646:11 0.0140397
9 *646:11 *789:reset_n 0
10 *646:11 *649:7 0.000100102
11 *646:13 *789:dft_inc[2] 0.00390158
12 *646:13 *647:9 0.0458528
13 *646:13 *648:9 4.43256e-05
14 *646:13 *650:11 0.00185016
15 *646:17 *647:13 0.0272327
16 *646:17 *648:13 0.0255888
17 *646:21 *788:adc_data[10] 0.000599368
18 *646:21 *788:adc_data[11] 0.00129516
19 *646:21 *788:adc_data[1] 0.000638549
20 *646:21 *788:adc_data[2] 0.000386268
21 *646:21 *788:adc_data[3] 0.000364616
22 *646:21 *788:adc_data[4] 0.000195252
23 *646:21 *788:adc_eof 0.000104865
24 *646:21 *647:17 0.00935045
25 *646:21 *648:29 0.000224263
26 *646:21 *649:17 0
27 *646:21 *650:17 0.0535317
28 *646:21 *651:17 0
29 *646:21 *769:23 0.00129445
30 *789:refclk *646:13 0.000342344
31 *85:24 *646:21 0.00213223
32 *103:21 *788:adc_data[0] 0.00074697
33 *103:21 *646:21 0.00342196
*RES
1 *789:data_out[0] *646:11 6.29464 
2 *646:11 *646:13 431.375 
3 *646:13 *646:15 4.5 
4 *646:15 *646:17 596.491 
5 *646:17 *646:19 3.41 
6 *646:19 *646:21 93.2652 
7 *646:21 *788:adc_data[0] 13.8233 
*END

*D_NET *647 0.237479
*CONN
*I *788:adc_data[10] I *D afe_wb
*I *789:data_out[10] O *D CF_ADC_SAR12
*CAP
1 *788:adc_data[10] 0.000766714
2 *789:data_out[10] 3.51833e-05
3 *647:17 0.00734867
4 *647:13 0.0263546
5 *647:11 0.0197726
6 *647:9 0.00564755
7 *647:7 0.00568274
8 *788:adc_data[10] *650:17 0.000378144
9 *788:adc_data[10] *651:17 4.28673e-05
10 *788:adc_data[10] *721:19 0.000166882
11 *788:adc_data[10] *754:19 0.000166882
12 *788:adc_data[10] *761:19 0.000166882
13 *788:adc_data[10] *762:15 0.000166882
14 *788:adc_data[10] *763:19 0.000166882
15 *647:7 *648:7 4.59242e-05
16 *647:7 *657:11 5.92299e-05
17 *647:9 *789:sample_width[1] 0.0007688
18 *647:9 *789:test_sea 0.0006011
19 *647:9 *789:pd 0.000355548
20 *647:9 *789:dft_inc[2] 0.00387497
21 *647:9 *648:9 0.0468349
22 *647:9 *650:11 0.000578134
23 *647:13 *648:13 0
24 *647:17 *788:adc_data[11] 0.000728505
25 *647:17 *648:29 0.025211
26 *647:17 *650:17 2.40453e-05
27 *647:17 *651:17 0.00150945
28 *647:17 *769:23 0.00236565
29 *789:refclk *647:9 0.000131939
30 *103:21 *788:adc_data[10] 0.00107363
31 *103:21 *647:17 0.00341729
32 *104:13 *647:17 0
33 *646:13 *647:9 0.0458528
34 *646:17 *647:13 0.0272327
35 *646:21 *788:adc_data[10] 0.000599368
36 *646:21 *647:17 0.00935045
*RES
1 *789:data_out[10] *647:7 5.625 
2 *647:7 *647:9 440.205 
3 *647:9 *647:11 4.5 
4 *647:11 *647:13 598.009 
5 *647:13 *647:17 49.6878 
6 *647:17 *788:adc_data[10] 12.7733 
*END

*D_NET *648 0.218252
*CONN
*I *788:adc_data[11] I *D afe_wb
*I *789:data_out[11] O *D CF_ADC_SAR12
*CAP
1 *788:adc_data[11] 0.000319044
2 *789:data_out[11] 1.95981e-05
3 *648:29 0.00686658
4 *648:13 0.0281621
5 *648:11 0.0216146
6 *648:9 0.0145093
7 *648:7 0.0145289
8 *648:7 *789:next 2.59767e-05
9 *648:9 *789:sample_width[1] 0.00140089
10 *648:9 *789:test_sea 0.00108083
11 *648:9 *789:pd 0.000646951
12 *648:9 *789:dft_inc[2] 0.00835332
13 *648:9 *650:11 0.00102326
14 *648:29 *650:17 0.000211638
15 *648:29 *651:17 0.0135257
16 *789:refclk *648:9 0.000284544
17 *103:21 *648:29 0.00570562
18 *104:13 *648:29 0
19 *646:13 *648:9 4.43256e-05
20 *646:17 *648:13 0.0255888
21 *646:21 *788:adc_data[11] 0.00129516
22 *646:21 *648:29 0.000224263
23 *647:7 *648:7 4.59242e-05
24 *647:9 *648:9 0.0468349
25 *647:13 *648:13 0
26 *647:17 *788:adc_data[11] 0.000728505
27 *647:17 *648:29 0.025211
*RES
1 *789:data_out[11] *648:7 5.32143 
2 *648:7 *648:9 442.464 
3 *648:9 *648:11 4.5 
4 *648:11 *648:13 598.312 
5 *648:13 *648:29 47.8992 
6 *648:29 *788:adc_data[11] 9.75156 
*END

*D_NET *649 0.331494
*CONN
*I *788:adc_data[1] I *D afe_wb
*I *789:data_out[1] O *D CF_ADC_SAR12
*CAP
1 *788:adc_data[1] 0.00193732
2 *789:data_out[1] 0.000170426
3 *649:17 0.0226149
4 *649:15 0.0206776
5 *649:13 0.00760113
6 *649:11 0.00760113
7 *649:9 0.00848651
8 *649:7 0.00865694
9 *649:7 *650:11 6.60827e-05
10 *649:7 *651:7 7.3994e-05
11 *649:9 *789:dft_inc[2] 1.31821e-05
12 *649:9 *651:9 0.0490409
13 *649:9 *691:17 0
14 *649:9 *715:17 0.0447685
15 *649:13 *691:13 0.0491948
16 *649:13 *701:13 0.0491963
17 *649:17 *788:adc_data[2] 0
18 *649:17 *788:adc_data[3] 0
19 *649:17 *651:17 0.0489982
20 *75:16 *788:adc_data[1] 1.68422e-05
21 *86:26 *788:adc_data[1] 0.000119135
22 *103:21 *788:adc_data[1] 0.00127169
23 *103:21 *649:17 0.0102503
24 *104:13 *649:17 0
25 *646:11 *649:7 0.000100102
26 *646:21 *788:adc_data[1] 0.000638549
27 *646:21 *649:17 0
*RES
1 *789:data_out[1] *649:7 7.7225 
2 *649:7 *649:9 77.7349 
3 *649:9 *649:11 3.41 
4 *649:11 *649:13 603.625 
5 *649:13 *649:15 3.41 
6 *649:15 *649:17 85.5541 
7 *649:17 *788:adc_data[1] 14.0021 
*END

*D_NET *650 0.256201
*CONN
*I *788:adc_data[2] I *D afe_wb
*I *789:data_out[2] O *D CF_ADC_SAR12
*CAP
1 *788:adc_data[2] 0.00147494
2 *789:data_out[2] 0.0023403
3 *650:17 0.0371712
4 *650:15 0.0356963
5 *650:13 0.0215211
6 *650:11 0.0238614
7 *650:11 *789:sample_width[1] 0.00352414
8 *650:11 *789:sample_width[5] 0.000245005
9 *650:11 *789:sample_width[6] 0.00248517
10 *650:11 *789:hiz 0.000226437
11 *650:11 *789:test_sea 0.00290985
12 *650:11 *789:reset_n 0.00257549
13 *650:11 *651:7 6.60827e-05
14 *650:11 *651:9 0.00132562
15 *650:13 *705:13 0.0398883
16 *650:17 *788:adc_data[5] 0
17 *650:17 *721:19 0.00429074
18 *650:17 *754:19 0
19 *788:adc_data[10] *650:17 0.000378144
20 *13:18 *650:13 0.00842245
21 *70:16 *788:adc_data[2] 4.42127e-05
22 *85:24 *788:adc_data[2] 7.281e-05
23 *103:21 *788:adc_data[2] 0.000950973
24 *103:21 *650:17 0.00581785
25 *108:37 *788:adc_data[2] 1.68422e-05
26 *528:15 *650:17 0.00322472
27 *646:13 *650:11 0.00185016
28 *646:21 *788:adc_data[2] 0.000386268
29 *646:21 *650:17 0.0535317
30 *647:9 *650:11 0.000578134
31 *647:17 *650:17 2.40453e-05
32 *648:9 *650:11 0.00102326
33 *648:29 *650:17 0.000211638
34 *649:7 *650:11 6.60827e-05
35 *649:17 *788:adc_data[2] 0
*RES
1 *789:data_out[2] *650:11 23.4219 
2 *650:11 *650:13 104.556 
3 *650:13 *650:15 3.41 
4 *650:15 *650:17 144.469 
5 *650:17 *788:adc_data[2] 13.2747 
*END

*D_NET *651 0.275061
*CONN
*I *788:adc_data[3] I *D afe_wb
*I *789:data_out[3] O *D CF_ADC_SAR12
*CAP
1 *788:adc_data[3] 0.00161168
2 *789:data_out[3] 0.000149591
3 *651:17 0.0139013
4 *651:15 0.0122896
5 *651:13 0.0184568
6 *651:11 0.0184568
7 *651:9 0.0121289
8 *651:7 0.0122785
9 *651:9 *789:sample_width[6] 0.000952419
10 *651:9 *789:hiz 0
11 *651:9 *789:reset_n 0.000984513
12 *651:9 *789:pd 8.15978e-05
13 *651:9 *789:dft_inc[2] 0.00442019
14 *651:9 *789:dft_inc[0] 0.00239137
15 *651:9 *789:icont_lv[0] 0.00103399
16 *651:9 *789:dft_outc[0] 8.47345e-05
17 *651:9 *789:enable_hv 0
18 *651:13 *691:13 0.049101
19 *651:17 *788:adc_data[4] 3.85738e-05
20 *788:adc_data[10] *651:17 4.28673e-05
21 *789:refclk *651:9 0.000497533
22 *18:31 *651:9 0
23 *18:42 *651:9 0
24 *73:18 *788:adc_data[3] 2.85852e-05
25 *80:39 *788:adc_data[3] 5.87686e-05
26 *103:21 *788:adc_data[3] 0.00139348
27 *103:21 *651:17 0.00977379
28 *646:21 *788:adc_data[3] 0.000364616
29 *646:21 *651:17 0
30 *647:17 *651:17 0.00150945
31 *648:29 *651:17 0.0135257
32 *649:7 *651:7 7.3994e-05
33 *649:9 *651:9 0.0490409
34 *649:17 *788:adc_data[3] 0
35 *649:17 *651:17 0.0489982
36 *650:11 *651:7 6.60827e-05
37 *650:11 *651:9 0.00132562
*RES
1 *789:data_out[3] *651:7 7.11536 
2 *651:7 *651:9 77.8069 
3 *651:9 *651:11 3.41 
4 *651:11 *651:13 602.411 
5 *651:13 *651:15 3.41 
6 *651:15 *651:17 76.762 
7 *651:17 *788:adc_data[3] 13.0635 
*END

*D_NET *652 0.231943
*CONN
*I *788:adc_data[4] I *D afe_wb
*I *789:data_out[4] O *D CF_ADC_SAR12
*CAP
1 *788:adc_data[4] 0.000111339
2 *789:data_out[4] 0.0814088
3 *652:25 0.0167005
4 *652:23 0.097998
5 *652:23 *789:iso_en 6.63171e-06
6 *652:23 *653:10 0.00501374
7 *77:24 *652:25 0
8 *111:17 *652:25 0.00924366
9 *121:17 *652:25 0.0212261
10 *646:21 *788:adc_data[4] 0.000195252
11 *651:17 *788:adc_data[4] 3.85738e-05
*RES
1 *789:data_out[4] *652:23 46.8376 
2 *652:23 *652:25 82.5038 
3 *652:25 *788:adc_data[4] 8.02196 
*END

*D_NET *653 0.177025
*CONN
*I *788:adc_data[5] I *D afe_wb
*I *789:data_out[5] O *D CF_ADC_SAR12
*CAP
1 *788:adc_data[5] 0.000796506
2 *789:data_out[5] 5.11297e-05
3 *653:18 0.00528906
4 *653:16 0.00449255
5 *653:14 0.0425046
6 *653:12 0.0425046
7 *653:10 0.0179678
8 *653:8 0.0180189
9 *653:8 *656:8 5.70486e-05
10 *653:10 *657:13 0.0218522
11 *81:24 *788:adc_data[5] 0.000544054
12 *111:21 *653:14 0.0179325
13 *650:17 *788:adc_data[5] 0
14 *652:23 *653:10 0.00501374
*RES
1 *789:data_out[5] *653:8 6.99077 
2 *653:8 *653:10 85.4867 
3 *653:10 *653:12 3.41 
4 *653:12 *653:14 148.396 
5 *653:14 *653:16 3.41 
6 *653:16 *653:18 92.4107 
7 *653:18 *788:adc_data[5] 23.6959 
*END

*D_NET *654 0.194795
*CONN
*I *788:adc_data[6] I *D afe_wb
*I *789:data_out[6] O *D CF_ADC_SAR12
*CAP
1 *788:adc_data[6] 0.00110727
2 *789:data_out[6] 9.44124e-05
3 *654:35 0.00513141
4 *654:33 0.0057651
5 *654:17 0.0526992
6 *654:15 0.0509583
7 *654:13 0.0178645
8 *654:11 0.0179589
9 *788:adc_data[6] *754:19 2.61244e-05
10 *654:11 *789:hiz 5.11428e-05
11 *654:11 *657:11 9.32365e-05
12 *654:13 *789:ibias2p5u_1 0.00041758
13 *654:13 *655:10 0.0413157
14 *654:13 *657:13 0.00013505
15 *654:13 *659:51 0.00117723
16 *654:13 *662:26 0
*RES
1 *789:data_out[6] *654:11 7.64474 
2 *654:11 *654:13 87.1913 
3 *654:13 *654:15 3.41 
4 *654:15 *654:17 140.289 
5 *654:17 *654:33 12.1138 
6 *654:33 *654:35 82.6964 
7 *654:35 *788:adc_data[6] 24.3445 
*END

*D_NET *655 0.208843
*CONN
*I *788:adc_data[7] I *D afe_wb
*I *789:data_out[7] O *D CF_ADC_SAR12
*CAP
1 *788:adc_data[7] 0.00219161
2 *789:data_out[7] 0.000121191
3 *655:32 0.00352449
4 *655:14 0.048322
5 *655:12 0.0469891
6 *655:10 0.0116506
7 *655:8 0.0117718
8 *655:8 *656:8 0.000129553
9 *655:10 *657:13 0.0428274
10 *654:13 *655:10 0.0413157
*RES
1 *789:data_out[7] *655:8 7.21245 
2 *655:8 *655:10 96.3531 
3 *655:10 *655:12 3.41 
4 *655:12 *655:14 136.83 
5 *655:14 *655:32 12.6274 
6 *655:32 *788:adc_data[7] 43.1339 
*END

*D_NET *656 0.189575
*CONN
*I *788:adc_data[8] I *D afe_wb
*I *789:data_out[8] O *D CF_ADC_SAR12
*CAP
1 *788:adc_data[8] 5.15501e-05
2 *789:data_out[8] 0.000677976
3 *656:26 0.0043585
4 *656:24 0.00430695
5 *656:22 0.0457995
6 *656:20 0.0469597
7 *656:10 0.0177416
8 *656:8 0.0172594
9 *656:8 *789:hiz 0.00170293
10 *656:8 *789:sof 9.76559e-05
11 *656:8 *789:test_sea 0.000685693
12 *656:8 *658:8 0.00217402
13 *656:10 *789:resolution[0] 0.00202006
14 *656:10 *789:resolution[1] 0.00176337
15 *656:10 *658:10 2.11758e-05
16 *656:10 *676:13 0
17 *656:10 *687:13 0.0404147
18 *656:20 *687:13 0.000662726
19 *656:22 *657:17 0
20 *656:22 *657:31 0
21 *656:26 *763:21 0.00264017
22 *111:21 *656:20 5.11642e-05
23 *653:8 *656:8 5.70486e-05
24 *655:8 *656:8 0.000129553
*RES
1 *789:data_out[8] *656:8 12.2148 
2 *656:8 *656:10 85.0606 
3 *656:10 *656:20 32.9023 
4 *656:20 *656:22 129.839 
5 *656:22 *656:24 3.41 
6 *656:24 *656:26 87.5536 
7 *656:26 *788:adc_data[8] 1.11607 
*END

*D_NET *657 0.187073
*CONN
*I *788:adc_data[9] I *D afe_wb
*I *789:data_out[9] O *D CF_ADC_SAR12
*CAP
1 *788:adc_data[9] 5.15501e-05
2 *789:data_out[9] 0.000325137
3 *657:33 0.00409188
4 *657:31 0.00554166
5 *657:17 0.0449746
6 *657:15 0.0434733
7 *657:13 0.011594
8 *657:11 0.0119192
9 *657:11 *789:hiz 0.000134345
10 *647:7 *657:11 5.92299e-05
11 *653:10 *657:13 0.0218522
12 *654:11 *657:11 9.32365e-05
13 *654:13 *657:13 0.00013505
14 *655:10 *657:13 0.0428274
15 *656:22 *657:17 0
16 *656:22 *657:31 0
*RES
1 *789:data_out[9] *657:11 8.82842 
2 *657:11 *657:13 90.4938 
3 *657:13 *657:15 3.41 
4 *657:15 *657:17 127.028 
5 *657:17 *657:31 11.9959 
6 *657:31 *657:33 81.4821 
7 *657:33 *788:adc_data[9] 1.11607 
*END

*D_NET *658 0.168378
*CONN
*I *788:adc_eof I *D afe_wb
*I *789:eof O *D CF_ADC_SAR12
*CAP
1 *788:adc_eof 0.00654161
2 *789:eof 0.000319255
3 *658:14 0.0441948
4 *658:12 0.0376532
5 *658:10 0.0179107
6 *658:8 0.01823
7 *788:adc_eof *769:23 0.000109693
8 *788:adc_eof *774:14 0
9 *658:8 *789:sof 0.00168054
10 *658:10 *687:13 0.000547196
11 *658:10 *702:13 0.0388906
12 *111:21 *658:14 0
13 *646:21 *788:adc_eof 0.000104865
14 *656:8 *658:8 0.00217402
15 *656:10 *658:10 2.11758e-05
*RES
1 *789:eof *658:8 10.168 
2 *658:8 *658:10 83.9953 
3 *658:10 *658:12 3.41 
4 *658:12 *658:14 111.174 
5 *658:14 *788:adc_eof 31.5762 
*END

*D_NET *659 0.280189
*CONN
*I *790:IREF_VCMBUF I *D CF_ADC_SAR12_sar_refs
*I *789:ibias2p5u I *D CF_ADC_SAR12
*I *789:ibias2p5u_1 I *D CF_ADC_SAR12
*I *790:IREF_VREFBUF I *D CF_ADC_SAR12_sar_refs
*I *792:ibias I *D CF_BUF_HIZ
*I *791:ibg_2p375uA O *D CF_BGR
*CAP
1 *790:IREF_VCMBUF 0.000256602
2 *789:ibias2p5u 0.00010638
3 *789:ibias2p5u_1 0.00089221
4 *790:IREF_VREFBUF 0.000691074
5 *792:ibias 3.24741e-05
6 *791:ibg_2p375uA 0.00685272
7 *659:57 0.014602
8 *659:53 0.0417126
9 *659:51 0.0286353
10 *659:47 0.0574399
11 *659:27 0.0629038
12 *659:23 0.0252695
13 *659:21 0.0248148
14 *790:IREF_VREFBUF *790:vref[4] 0
15 *659:47 *762:17 0
16 *659:47 *763:21 1.68489e-05
17 *659:51 *789:vrefhi 0
18 *659:51 *662:26 0
19 *14:18 *790:IREF_VREFBUF 0
20 *73:18 *659:23 0.0119169
21 *86:26 *659:21 0
22 *107:26 *659:23 0.00245077
23 *654:13 *789:ibias2p5u_1 0.00041758
24 *654:13 *659:51 0.00117723
*RES
1 *791:ibg_2p375uA *659:21 36.7101 
2 *659:21 *659:23 76.2183 
3 *659:23 *659:27 25.2572 
4 *659:27 *792:ibias 4.05732 
5 *659:27 *659:47 20.7598 
6 *659:47 *659:51 8.03793 
7 *659:51 *659:53 78.3114 
8 *659:53 *659:57 48.4141 
9 *659:57 *790:IREF_VREFBUF 4.71738 
10 *659:47 *789:ibias2p5u_1 6.0843 
11 *789:ibias2p5u_1 *789:ibias2p5u 0.3572 
12 *790:IREF_VREFBUF *790:IREF_VCMBUF 0.846783 
*END

*D_NET *660 0.0796911
*CONN
*I *793:nbias I *D CF_REFBUF
*I *791:ibg_3uA O *D CF_BGR
*CAP
1 *793:nbias 4.17347e-05
2 *791:ibg_3uA 9.32779e-05
3 *660:24 0.00117576
4 *660:16 0.0387368
5 *660:14 0.0379285
6 *660:7 0.000419001
7 *660:7 *664:5 3.64594e-05
8 *660:14 *664:5 1.53769e-05
9 *660:14 *664:12 0.000620229
10 *660:16 *664:14 0
11 *660:24 *664:26 0.000623887
*RES
1 *791:ibg_3uA *660:7 2.46429 
2 *660:7 *660:14 6.82369 
3 *660:14 *660:16 80.0925 
4 *660:16 *660:24 20.1183 
5 *660:24 *793:nbias 1.08929 
*END

*D_NET *661 0.152825
*CONN
*I *789:refby2 I *D CF_ADC_SAR12
*I *790:REFBY2 O *D CF_ADC_SAR12_sar_refs
*CAP
1 *789:refby2 0.000180596
2 *790:REFBY2 0.000102237
3 *661:30 0.0565026
4 *661:24 0.0759403
5 *661:5 0.0197206
6 *789:refby2 *700:13 6.08627e-05
7 *661:5 *790:vref[1] 6.12937e-05
8 *661:30 *700:13 0.000240899
9 *14:18 *661:24 1.59817e-05
*RES
1 *790:REFBY2 *661:5 0.396367 
2 *661:5 *661:24 41.5131 
3 *661:24 *661:30 18.0696 
4 *661:30 *789:refby2 0.645467 
*END

*D_NET *662 0.0891336
*CONN
*I *789:vrefhi I *D CF_ADC_SAR12
*I *790:REFHI O *D CF_ADC_SAR12_sar_refs
*CAP
1 *789:vrefhi 0.000135528
2 *790:REFHI 0.00041397
3 *662:26 0.0014555
4 *662:22 0.0277489
5 *662:20 0.0425953
6 *662:7 0.0165803
7 *14:18 *662:20 0.000204103
8 *654:13 *662:26 0
9 *659:51 *789:vrefhi 0
10 *659:51 *662:26 0
*RES
1 *790:REFHI *662:7 0.986217 
2 *662:7 *662:20 43.0002 
3 *662:20 *662:22 56.9797 
4 *662:22 *662:26 6.02521 
5 *662:26 *789:vrefhi 0.476267 
*END

*D_NET *663 0.13335
*CONN
*I *789:vinp I *D CF_ADC_SAR12
*I *792:vout O *D CF_BUF_HIZ
*CAP
1 *789:vinp 4.47803e-05
2 *792:vout 0.000151215
3 *663:36 0.012452
4 *663:30 0.0604856
5 *663:7 0.0482296
6 *663:36 *708:13 0.00961769
7 *789:vreflo *789:vinp 5.50226e-05
8 *789:vinm *789:vinp 3.92775e-05
9 *13:22 *663:36 0.00219433
10 *15:38 *663:36 8.00474e-05
*RES
1 *792:vout *663:7 3.29464 
2 *663:7 *663:30 23.8675 
3 *663:30 *663:36 40.2591 
4 *663:36 *789:vinp 0.3478 
*END

*D_NET *664 0.0838782
*CONN
*I *793:ref_1v2 I *D CF_REFBUF
*I *791:Vout O *D CF_BGR
*CAP
1 *793:ref_1v2 5.93853e-05
2 *791:Vout 3.69088e-05
3 *664:26 0.00165212
4 *664:14 0.0405846
5 *664:12 0.0396021
6 *664:5 0.000647146
7 *660:7 *664:5 3.64594e-05
8 *660:14 *664:5 1.53769e-05
9 *660:14 *664:12 0.000620229
10 *660:16 *664:14 0
11 *660:24 *664:26 0.000623887
*RES
1 *791:Vout *664:5 1.375 
2 *664:5 *664:12 8.74631 
3 *664:12 *664:14 80.3499 
4 *664:14 *664:26 21.6305 
5 *664:26 *793:ref_1v2 1.5 
*END

*D_NET *665 0.110733
*CONN
*I *792:e_pd I *D CF_BUF_HIZ
*I *788:analog_ctrl[0] O *D afe_wb
*CAP
1 *792:e_pd 0.00438217
2 *788:analog_ctrl[0] 0.00133767
3 *665:13 0.0118566
4 *665:11 0.00881207
5 *792:e_pd *792:en_pd 0.00989828
6 *665:11 *699:11 0.000423355
7 *665:11 *710:11 0
8 *665:13 *710:13 2.2355e-05
9 *665:13 *743:13 0.0341352
10 *665:13 *755:13 0
11 *665:13 *757:13 0.0398653
12 *7:26 *792:e_pd 0
*RES
1 *788:analog_ctrl[0] *665:11 6.84727 
2 *665:11 *665:13 489.482 
3 *665:13 *792:e_pd 32.9953 
*END

*D_NET *670 0.161629
*CONN
*I *793:pd I *D CF_REFBUF
*I *788:analog_ctrl[104] O *D afe_wb
*CAP
1 *793:pd 0.0139046
2 *788:analog_ctrl[104] 0.000216047
3 *670:19 0.0139046
4 *670:17 0.0578076
5 *670:15 0.0578076
6 *670:13 0.00584804
7 *670:11 0.00606409
8 *670:11 *671:11 4.24127e-05
9 *670:11 *674:11 0.000314153
10 *670:11 *680:15 0.000276812
11 *670:13 *680:17 0.00544333
*RES
1 *788:analog_ctrl[104] *670:11 12.1668 
2 *670:11 *670:13 111.429 
3 *670:13 *670:15 4.5 
4 *670:15 *670:17 1176.16 
5 *670:17 *670:19 4.5 
6 *670:19 *793:pd 265.384 
*END

*D_NET *671 0.208406
*CONN
*I *793:switchon I *D CF_REFBUF
*I *788:analog_ctrl[105] O *D afe_wb
*CAP
1 *793:switchon 0.00320127
2 *788:analog_ctrl[105] 0.000878239
3 *671:21 0.0208892
4 *671:19 0.017688
5 *671:17 0.0247367
6 *671:15 0.0247367
7 *671:13 0.0367374
8 *671:11 0.0376156
9 *793:switchon *672:21 0
10 *671:11 *672:11 0.000302834
11 *671:11 *680:17 0
12 *671:13 *694:13 0.00142529
13 *671:13 *699:13 0
14 *671:13 *721:13 0.00334113
15 *671:13 *732:13 0.0121859
16 *671:13 *735:13 0.00894275
17 *671:13 *754:13 0.000339083
18 *671:13 *756:13 0
19 *671:13 *758:13 0
20 *671:13 *759:13 0
21 *671:13 *760:13 0
22 *671:21 *672:21 0
23 *4:18 *671:17 0
24 *120:17 *671:13 0.0153432
25 *670:11 *671:11 4.24127e-05
*RES
1 *788:analog_ctrl[105] *671:11 6.15793 
2 *671:11 *671:13 917.518 
3 *671:13 *671:15 3.41 
4 *671:15 *671:17 72.2218 
5 *671:17 *671:19 3.41 
6 *671:19 *671:21 55.7827 
7 *671:21 *793:switchon 17.5658 
*END

*D_NET *672 0.183025
*CONN
*I *793:boost I *D CF_REFBUF
*I *788:analog_ctrl[106] O *D afe_wb
*CAP
1 *793:boost 3.93512e-05
2 *788:analog_ctrl[106] 0.00422094
3 *672:21 0.0159652
4 *672:19 0.0159259
5 *672:17 0.020155
6 *672:15 0.020155
7 *672:13 0.0495703
8 *672:11 0.0537913
9 *672:11 *673:11 0.00289942
10 *672:13 *783:13 0
11 *793:switchon *672:21 0
12 *3:10 *672:17 0
13 *671:11 *672:11 0.000302834
14 *671:21 *672:21 0
*RES
1 *788:analog_ctrl[106] *672:11 20.1796 
2 *672:11 *672:13 1006.77 
3 *672:13 *672:15 3.41 
4 *672:15 *672:17 59.0336 
5 *672:17 *672:19 3.41 
6 *672:19 *672:21 50.8634 
7 *672:21 *793:boost 6.90303 
*END

*D_NET *673 0.175564
*CONN
*I *793:ch_cont I *D CF_REFBUF
*I *788:analog_ctrl[107] O *D afe_wb
*CAP
1 *793:ch_cont 0.012911
2 *788:analog_ctrl[107] 0.00369256
3 *673:15 0.012911
4 *673:13 0.0624641
5 *673:11 0.0661567
6 *673:11 *674:11 5.23943e-05
7 *673:11 *675:7 0
8 *673:11 *679:13 0.000207413
9 *673:11 *689:17 0.0142693
10 *672:11 *673:11 0.00289942
*RES
1 *788:analog_ctrl[107] *673:11 26.6656 
2 *673:11 *673:13 1271.63 
3 *673:13 *673:15 4.5 
4 *673:15 *793:ch_cont 246.902 
*END

*D_NET *674 0.175717
*CONN
*I *790:sw_start I *D CF_ADC_SAR12_sar_refs
*I *788:analog_ctrl[108] O *D afe_wb
*CAP
1 *790:sw_start 0.00109925
2 *788:analog_ctrl[108] 0.00120346
3 *674:17 0.0143638
4 *674:15 0.0132646
5 *674:13 0.0530351
6 *674:11 0.0542385
7 *790:sw_start *790:pd_ana 0
8 *790:sw_start *776:51 0
9 *674:11 *675:7 4.14922e-05
10 *674:11 *678:11 0.00208205
11 *674:11 *679:11 7.84459e-05
12 *674:11 *680:15 0.000369582
13 *674:11 *682:11 0.000307115
14 *674:11 *780:11 0.000128234
15 *674:13 *777:11 0
16 *674:13 *778:7 5.1304e-06
17 *674:13 *782:11 0
18 *674:17 *679:17 0.0351338
19 *670:11 *674:11 0.000314153
20 *673:11 *674:11 5.23943e-05
*RES
1 *788:analog_ctrl[108] *674:11 45.1565 
2 *674:11 *674:13 160.251 
3 *674:13 *674:15 3.41 
4 *674:15 *674:17 431.196 
5 *674:17 *790:sw_start 11.0443 
*END

*D_NET *675 0.185199
*CONN
*I *790:pd_vcmbuf I *D CF_ADC_SAR12_sar_refs
*I *788:analog_ctrl[109] O *D afe_wb
*CAP
1 *790:pd_vcmbuf 0.00102938
2 *788:analog_ctrl[109] 0.000134386
3 *675:13 0.0201234
4 *675:11 0.019094
5 *675:9 0.0434556
6 *675:7 0.04359
7 *790:pd_vcmbuf *790:EN_RESVDA 0.0026385
8 *790:pd_vcmbuf *790:PD_BUF_VREF 1.05319e-05
9 *790:pd_vcmbuf *694:33 0
10 *675:7 *677:7 5.42441e-05
11 *675:9 *677:7 6.73311e-06
12 *675:9 *677:9 0.0209523
13 *675:9 *679:13 0
14 *675:13 *741:13 0.0340689
15 *673:11 *675:7 0
16 *674:11 *675:7 4.14922e-05
*RES
1 *788:analog_ctrl[109] *675:7 0.471567 
2 *675:7 *675:9 158.99 
3 *675:9 *675:11 3.41 
4 *675:11 *675:13 544.125 
5 *675:13 *790:pd_vcmbuf 12.3453 
*END

*D_NET *676 0.158714
*CONN
*I *789:reset_n I *D CF_ADC_SAR12
*I *788:analog_ctrl[10] O *D afe_wb
*CAP
1 *789:reset_n 0.000531376
2 *788:analog_ctrl[10] 0.000215663
3 *676:13 0.0356755
4 *676:11 0.0351441
5 *676:9 0.0271858
6 *676:7 0.0274015
7 *789:reset_n *789:test_sea 3.5669e-05
8 *676:7 *687:7 3.1676e-05
9 *676:7 *787:7 3.27392e-05
10 *676:7 *787:9 4.20253e-06
11 *676:9 *687:7 4.20253e-06
12 *676:9 *687:9 0.0148857
13 *676:9 *787:9 0.0093432
14 *676:13 *789:resolution[0] 0.00466298
15 *676:13 *687:13 0
16 *676:13 *704:13 0
17 *646:11 *789:reset_n 0
18 *650:11 *789:reset_n 0.00257549
19 *651:9 *789:reset_n 0.000984513
20 *656:10 *676:13 0
*RES
1 *788:analog_ctrl[10] *676:7 0.471567 
2 *676:7 *676:9 106.994 
3 *676:9 *676:11 3.41 
4 *676:11 *676:13 114.464 
5 *676:13 *789:reset_n 13.1339 
*END

*D_NET *677 0.164972
*CONN
*I *790:S_LV[0] I *D CF_ADC_SAR12_sar_refs
*I *788:analog_ctrl[110] O *D afe_wb
*CAP
1 *790:S_LV[0] 0.000636218
2 *788:analog_ctrl[110] 0.000130918
3 *677:17 0.0144944
4 *677:13 0.0385262
5 *677:11 0.024668
6 *677:9 0.0302303
7 *677:7 0.0303613
8 *790:S_LV[0] *790:S_LV[4] 0.00093424
9 *790:S_LV[0] *790:S_LV[1] 7.65603e-05
10 *677:7 *678:11 3.7656e-05
11 *677:7 *679:11 0
12 *677:9 *679:11 0
13 *677:9 *685:13 0
14 *677:17 *790:S_LV[4] 0.00386317
15 *675:7 *677:7 5.42441e-05
16 *675:9 *677:7 6.73311e-06
17 *675:9 *677:9 0.0209523
*RES
1 *788:analog_ctrl[110] *677:7 0.471567 
2 *677:7 *677:9 118.993 
3 *677:9 *677:11 3.41 
4 *677:11 *677:13 504.054 
5 *677:13 *677:17 47.2735 
6 *677:17 *790:S_LV[0] 20.0261 
*END

*D_NET *678 0.167317
*CONN
*I *790:S_LV[1] I *D CF_ADC_SAR12_sar_refs
*I *788:analog_ctrl[111] O *D afe_wb
*CAP
1 *790:S_LV[1] 0.000533196
2 *788:analog_ctrl[111] 0.000623103
3 *678:17 0.0243583
4 *678:15 0.0238251
5 *678:13 0.0546685
6 *678:11 0.0552916
7 *790:S_LV[1] *790:S_LV[2] 0.00128381
8 *678:11 *679:11 0.000351282
9 *678:11 *682:11 0.000269982
10 *678:11 *688:15 0.00217847
11 *678:13 *688:17 0
12 *678:13 *783:11 0.00136639
13 *678:13 *784:11 0.00037142
14 *790:vssa *790:S_LV[1] 0
15 *790:S_LV[0] *790:S_LV[1] 7.65603e-05
16 *19:47 *790:S_LV[1] 0
17 *674:11 *678:11 0.00208205
18 *677:7 *678:11 3.7656e-05
*RES
1 *788:analog_ctrl[111] *678:11 40.2273 
2 *678:11 *678:13 161.332 
3 *678:13 *678:15 3.41 
4 *678:15 *678:17 486.446 
5 *678:17 *790:S_LV[1] 10.0354 
*END

*D_NET *679 0.242779
*CONN
*I *790:S_LV[2] I *D CF_ADC_SAR12_sar_refs
*I *788:analog_ctrl[112] O *D afe_wb
*CAP
1 *790:S_LV[2] 0.000481874
2 *788:analog_ctrl[112] 0.000299809
3 *679:17 0.0176818
4 *679:15 0.0172
5 *679:13 0.0346507
6 *679:11 0.0349506
7 *790:S_LV[2] *790:S_LV[3] 0.00198384
8 *679:11 *680:15 0.000919382
9 *679:11 *685:13 1.0742e-05
10 *679:11 *688:11 7.76873e-05
11 *679:11 *688:15 1.46286e-05
12 *679:13 *689:17 0.0974536
13 *790:S_LV[1] *790:S_LV[2] 0.00128381
14 *19:47 *790:S_LV[2] 0
15 *673:11 *679:13 0.000207413
16 *674:11 *679:11 7.84459e-05
17 *674:17 *679:17 0.0351338
18 *675:9 *679:13 0
19 *677:7 *679:11 0
20 *677:9 *679:11 0
21 *678:11 *679:11 0.000351282
*RES
1 *788:analog_ctrl[112] *679:11 17.9072 
2 *679:11 *679:13 160.107 
3 *679:13 *679:15 3.41 
4 *679:15 *679:17 510.732 
5 *679:17 *790:S_LV[2] 11.1164 
*END

*D_NET *680 0.183205
*CONN
*I *790:S_LV[3] I *D CF_ADC_SAR12_sar_refs
*I *788:analog_ctrl[113] O *D afe_wb
*CAP
1 *790:S_LV[3] 0.000890737
2 *788:analog_ctrl[113] 0.00100941
3 *680:21 0.019298
4 *680:19 0.0184072
5 *680:17 0.0522496
6 *680:15 0.053259
7 *790:S_LV[3] *790:S_LV[4] 7.65603e-05
8 *790:S_LV[3] *684:17 0.00186203
9 *680:15 *681:7 6.05074e-05
10 *680:15 *681:9 4.85689e-06
11 *680:15 *685:11 5.59239e-05
12 *680:15 *685:13 6.82242e-05
13 *680:15 *688:11 4.11985e-05
14 *680:15 *689:15 0
15 *680:21 *744:13 0.0269283
16 *790:S_LV[2] *790:S_LV[3] 0.00198384
17 *670:11 *680:15 0.000276812
18 *670:13 *680:17 0.00544333
19 *671:11 *680:17 0
20 *674:11 *680:15 0.000369582
21 *679:11 *680:15 0.000919382
*RES
1 *788:analog_ctrl[113] *680:15 32.4238 
2 *680:15 *680:17 157.873 
3 *680:17 *680:19 3.41 
4 *680:19 *680:21 497.982 
5 *680:21 *790:S_LV[3] 13.2784 
*END

*D_NET *681 0.16479
*CONN
*I *790:S_LV[4] I *D CF_ADC_SAR12_sar_refs
*I *788:analog_ctrl[114] O *D afe_wb
*CAP
1 *790:S_LV[4] 0.00177697
2 *788:analog_ctrl[114] 0.000118301
3 *681:13 0.0197744
4 *681:11 0.0179974
5 *681:9 0.0518331
6 *681:7 0.0519514
7 *790:S_LV[4] *790:S_LV[7] 7.65603e-05
8 *790:S_LV[4] *790:S_LV[5] 1.03556e-05
9 *681:7 *682:9 3.35329e-05
10 *681:7 *683:7 0
11 *681:9 *683:7 0
12 *681:9 *683:9 0
13 *681:9 *685:13 0
14 io_out[19] *681:13 0.0162784
15 *790:S_LV[3] *790:S_LV[4] 7.65603e-05
16 *790:S_LV[0] *790:S_LV[4] 0.00093424
17 *677:17 *790:S_LV[4] 0.00386317
18 *680:15 *681:7 6.05074e-05
19 *680:15 *681:9 4.85689e-06
*RES
1 *788:analog_ctrl[114] *681:7 0.471567 
2 *681:7 *681:9 156.828 
3 *681:9 *681:11 3.41 
4 *681:11 *681:13 513.161 
5 *681:13 *790:S_LV[4] 27.3045 
*END

*D_NET *682 0.168735
*CONN
*I *790:S_LV[5] I *D CF_ADC_SAR12_sar_refs
*I *788:analog_ctrl[115] O *D afe_wb
*CAP
1 *790:S_LV[5] 0.000849488
2 *788:analog_ctrl[115] 6.82231e-05
3 *682:19 0.0235352
4 *682:17 0.0226857
5 *682:15 0.0516139
6 *682:13 0.0516139
7 *682:11 0.00225485
8 *682:9 0.00232308
9 *790:S_LV[5] *790:S_LV[6] 0.00469425
10 *790:S_LV[5] *790:dft_comp_en 0.00465694
11 *682:9 *683:7 2.75343e-05
12 *682:11 *688:11 0.000381121
13 *682:11 *688:15 0.00223876
14 *682:11 *780:11 0.000343635
15 *682:15 *775:11 0.000283367
16 *682:15 *777:11 0.000544347
17 *790:S_LV[4] *790:S_LV[5] 1.03556e-05
18 *674:11 *682:11 0.000307115
19 *678:11 *682:11 0.000269982
20 *681:7 *682:9 3.35329e-05
*RES
1 *788:analog_ctrl[115] *682:9 4.10238 
2 *682:9 *682:11 61.7143 
3 *682:11 *682:13 3.41 
4 *682:13 *682:15 156.071 
5 *682:15 *682:17 3.41 
6 *682:17 *682:19 463.982 
7 *682:19 *790:S_LV[5] 15.7216 
*END

*D_NET *683 0.169253
*CONN
*I *790:S_LV[6] I *D CF_ADC_SAR12_sar_refs
*I *788:analog_ctrl[116] O *D afe_wb
*CAP
1 *790:S_LV[6] 0.00944806
2 *788:analog_ctrl[116] 0.000114311
3 *683:13 0.0352849
4 *683:11 0.0258368
5 *683:9 0.0333024
6 *683:7 0.0334167
7 *790:S_LV[6] *790:dft_comp_en 0.00177539
8 *790:S_LV[6] *684:17 0.00469281
9 *683:7 *684:7 6.19192e-05
10 *683:9 *684:7 8.00985e-06
11 *683:9 *684:9 0.02059
12 *790:S_LV[5] *790:S_LV[6] 0.00469425
13 *681:7 *683:7 0
14 *681:9 *683:7 0
15 *681:9 *683:9 0
16 *682:9 *683:7 2.75343e-05
*RES
1 *788:analog_ctrl[116] *683:7 0.471567 
2 *683:7 *683:9 127.641 
3 *683:9 *683:11 3.41 
4 *683:11 *683:13 527.732 
5 *683:13 *790:S_LV[6] 43.5464 
*END

*D_NET *684 0.170981
*CONN
*I *790:S_LV[7] I *D CF_ADC_SAR12_sar_refs
*I *788:analog_ctrl[117] O *D afe_wb
*CAP
1 *790:S_LV[7] 1.8644e-05
2 *788:analog_ctrl[117] 9.4587e-05
3 *684:17 0.011922
4 *684:13 0.0379609
5 *684:11 0.0260576
6 *684:9 0.0296215
7 *684:7 0.0297161
8 *790:S_LV[7] *790:dft_comp_en 7.65603e-05
9 *684:7 *685:11 7.07754e-05
10 *684:9 *685:11 1.83188e-06
11 *684:9 *686:7 0
12 *684:9 *686:9 0
13 *684:13 *692:29 0
14 *684:17 *790:dft_comp_en 0.00814896
15 *790:S_LV[6] *684:17 0.00469281
16 *790:S_LV[4] *790:S_LV[7] 7.65603e-05
17 *790:S_LV[3] *684:17 0.00186203
18 *683:7 *684:7 6.19192e-05
19 *683:9 *684:7 8.00985e-06
20 *683:9 *684:9 0.02059
*RES
1 *788:analog_ctrl[117] *684:7 0.471567 
2 *684:7 *684:9 116.831 
3 *684:9 *684:11 3.41 
4 *684:11 *684:13 531.982 
5 *684:13 *684:17 49.6517 
6 *684:17 *790:S_LV[7] 4.70464 
*END

*D_NET *685 0.158031
*CONN
*I *790:refout_en I *D CF_ADC_SAR12_sar_refs
*I *788:analog_ctrl[118] O *D afe_wb
*CAP
1 *790:refout_en 0.0114998
2 *788:analog_ctrl[118] 0.000547415
3 *685:17 0.0345216
4 *685:15 0.0230218
5 *685:13 0.0425628
6 *685:11 0.0431102
7 *790:refout_en *790:hiz 0
8 *790:refout_en *790:pd_ana 0.00192316
9 *790:refout_en *790:sw_holdb 0
10 *790:refout_en *790:enpdb_hv 0
11 *790:refout_en *692:44 0
12 *685:11 *686:7 6.17459e-05
13 *685:11 *688:11 0.000575252
14 *685:11 *689:15 0
15 *677:9 *685:13 0
16 *679:11 *685:13 1.0742e-05
17 *680:15 *685:11 5.59239e-05
18 *680:15 *685:13 6.82242e-05
19 *681:9 *685:13 0
20 *684:7 *685:11 7.07754e-05
21 *684:9 *685:11 1.83188e-06
*RES
1 *788:analog_ctrl[118] *685:11 20.3357 
2 *685:11 *685:13 128.758 
3 *685:13 *685:15 3.41 
4 *685:15 *685:17 470.661 
5 *685:17 *790:refout_en 43.1975 
*END

*D_NET *686 0.159382
*CONN
*I *790:sw_holdb I *D CF_ADC_SAR12_sar_refs
*I *788:analog_ctrl[119] O *D afe_wb
*CAP
1 *790:sw_holdb 0.00587744
2 *788:analog_ctrl[119] 9.17497e-05
3 *686:13 0.029434
4 *686:11 0.0235565
5 *686:9 0.0456361
6 *686:7 0.0457279
7 *790:sw_holdb *790:enpdb_hv 0.00894796
8 *686:7 *688:11 4.89581e-05
9 *686:7 *689:15 0
10 *686:9 *689:15 0
11 *790:refout_en *790:sw_holdb 0
12 *684:9 *686:7 0
13 *684:9 *686:9 0
14 *685:11 *686:7 6.17459e-05
*RES
1 *788:analog_ctrl[119] *686:7 0.471567 
2 *686:7 *686:9 138.451 
3 *686:9 *686:11 3.41 
4 *686:11 *686:13 481.589 
5 *686:13 *790:sw_holdb 33.6286 
*END

*D_NET *687 0.209252
*CONN
*I *789:sof I *D CF_ADC_SAR12
*I *788:analog_ctrl[11] O *D afe_wb
*CAP
1 *789:sof 0.000567993
2 *788:analog_ctrl[11] 0.000218108
3 *687:13 0.0156349
4 *687:11 0.0150669
5 *687:9 0.0305789
6 *687:7 0.030797
7 *687:7 *691:11 3.1676e-05
8 *687:9 *691:11 0.00468671
9 *687:9 *692:9 0
10 *687:13 *702:13 0.0533457
11 *656:8 *789:sof 9.76559e-05
12 *656:10 *687:13 0.0404147
13 *656:20 *687:13 0.000662726
14 *658:8 *789:sof 0.00168054
15 *658:10 *687:13 0.000547196
16 *676:7 *687:7 3.1676e-05
17 *676:9 *687:7 4.20253e-06
18 *676:9 *687:9 0.0148857
19 *676:13 *687:13 0
*RES
1 *788:analog_ctrl[11] *687:7 0.471567 
2 *687:7 *687:9 107.859 
3 *687:9 *687:11 3.41 
4 *687:11 *687:13 114.144 
5 *687:13 *789:sof 9.69797 
*END

*D_NET *688 0.163551
*CONN
*I *790:enpdb_hv I *D CF_ADC_SAR12_sar_refs
*I *788:analog_ctrl[120] O *D afe_wb
*CAP
1 *790:enpdb_hv 0.00903425
2 *788:analog_ctrl[120] 0.000801823
3 *688:21 0.0302119
4 *688:19 0.0211777
5 *688:17 0.0430463
6 *688:15 0.0434883
7 *688:11 0.00124373
8 *790:enpdb_hv *746:17 0
9 *688:11 *689:15 4.31898e-05
10 *790:refout_en *790:enpdb_hv 0
11 *790:sw_holdb *790:enpdb_hv 0.00894796
12 *678:11 *688:15 0.00217847
13 *678:13 *688:17 0
14 *679:11 *688:11 7.76873e-05
15 *679:11 *688:15 1.46286e-05
16 *680:15 *688:11 4.11985e-05
17 *682:11 *688:11 0.000381121
18 *682:11 *688:15 0.00223876
19 *685:11 *688:11 0.000575252
20 *686:7 *688:11 4.89581e-05
*RES
1 *788:analog_ctrl[120] *688:11 25.4066 
2 *688:11 *688:15 31.2671 
3 *688:15 *688:17 130.055 
4 *688:17 *688:19 3.41 
5 *688:19 *688:21 433.625 
6 *688:21 *790:enpdb_hv 42.2766 
*END

*D_NET *689 0.237597
*CONN
*I *790:PD_BUF_VREF I *D CF_ADC_SAR12_sar_refs
*I *788:analog_ctrl[121] O *D afe_wb
*CAP
1 *790:PD_BUF_VREF 0.00276607
2 *788:analog_ctrl[121] 0.00193424
3 *689:21 0.0290652
4 *689:19 0.0262992
5 *689:17 0.0294475
6 *689:15 0.0313818
7 *790:PD_BUF_VREF *790:PWR_CTRL_VREF[1] 3.7271e-05
8 *790:PD_BUF_VREF *790:EN_RESVDA 4.17366e-05
9 *790:PD_BUF_VREF *790:PWR_CTRL_VREF[0] 0.00251875
10 *790:PD_BUF_VREF *742:23 0.00218583
11 *689:15 *690:5 0.000142809
12 *790:pd_vcmbuf *790:PD_BUF_VREF 1.05319e-05
13 *673:11 *689:17 0.0142693
14 *679:13 *689:17 0.0974536
15 *680:15 *689:15 0
16 *685:11 *689:15 0
17 *686:7 *689:15 0
18 *686:9 *689:15 0
19 *688:11 *689:15 4.31898e-05
*RES
1 *788:analog_ctrl[121] *689:15 40.8211 
2 *689:15 *689:17 151.964 
3 *689:17 *689:19 3.41 
4 *689:19 *689:21 537.446 
5 *689:21 *790:PD_BUF_VREF 18.2849 
*END

*D_NET *690 0.170389
*CONN
*I *790:dft_comp_en I *D CF_ADC_SAR12_sar_refs
*I *788:analog_ctrl[122] O *D afe_wb
*CAP
1 *790:dft_comp_en 0.0015143
2 *788:analog_ctrl[122] 0.0496634
3 *690:9 0.0281307
4 *690:7 0.0266164
5 *690:5 0.0496634
6 *790:S_LV[7] *790:dft_comp_en 7.65603e-05
7 *790:S_LV[6] *790:dft_comp_en 0.00177539
8 *790:S_LV[5] *790:dft_comp_en 0.00465694
9 *684:17 *790:dft_comp_en 0.00814896
10 *689:15 *690:5 0.000142809
*RES
1 *788:analog_ctrl[122] *690:5 150.704 
2 *690:5 *690:7 3.41 
3 *690:7 *690:9 543.518 
4 *690:9 *790:dft_comp_en 20.8454 
*END

*D_NET *691 0.230497
*CONN
*I *789:next I *D CF_ADC_SAR12
*I *788:analog_ctrl[12] O *D afe_wb
*CAP
1 *789:next 0.000481431
2 *788:analog_ctrl[12] 0.00859396
3 *691:17 0.0173877
4 *691:15 0.0169062
5 *691:13 0.00974557
6 *691:11 0.0183395
7 *691:11 *692:7 3.58785e-05
8 *691:11 *692:9 0.00468508
9 *691:13 *701:13 0.00273498
10 *691:17 *701:17 0.0485464
11 *691:17 *715:17 0
12 *648:7 *789:next 2.59767e-05
13 *649:9 *691:17 0
14 *649:13 *691:13 0.0491948
15 *651:13 *691:13 0.049101
16 *687:7 *691:11 3.1676e-05
17 *687:9 *691:11 0.00468671
*RES
1 *788:analog_ctrl[12] *691:11 37.908 
2 *691:11 *691:13 664.946 
3 *691:13 *691:15 3.41 
4 *691:15 *691:17 79.6086 
5 *691:17 *789:next 13.5305 
*END

*D_NET *692 0.223549
*CONN
*I *790:hiz I *D CF_ADC_SAR12_sar_refs
*I *789:hiz I *D CF_ADC_SAR12
*I *788:analog_ctrl[13] O *D afe_wb
*CAP
1 *790:hiz 4.06359e-05
2 *789:hiz 0.00183826
3 *788:analog_ctrl[13] 0.000217309
4 *692:44 0.00974901
5 *692:29 0.0231124
6 *692:27 0.0212742
7 *692:25 0.0117494
8 *692:19 0.0156524
9 *692:15 0.0264961
10 *692:9 0.0299017
11 *692:7 0.0172342
12 *789:hiz *789:test_sea 0.00016097
13 *790:hiz *790:pd 8.40743e-05
14 *692:7 *693:7 3.27392e-05
15 *692:9 *693:7 4.20253e-06
16 *692:9 *693:9 0.0116431
17 *692:19 *790:pd_ana 0.00427493
18 *692:25 *790:pd_ana 0.00167002
19 *692:25 *776:51 0.00476099
20 *692:44 *790:pd_ana 0.00754917
21 *692:44 *776:51 0.0292674
22 *790:refout_en *790:hiz 0
23 *790:refout_en *692:44 0
24 *650:11 *789:hiz 0.000226437
25 *651:9 *789:hiz 0
26 *654:11 *789:hiz 5.11428e-05
27 *656:8 *789:hiz 0.00170293
28 *657:11 *789:hiz 0.000134345
29 *684:13 *692:29 0
30 *687:9 *692:9 0
31 *691:11 *692:7 3.58785e-05
32 *691:11 *692:9 0.00468508
*RES
1 *788:analog_ctrl[13] *692:7 0.471567 
2 *692:7 *692:9 68.0779 
3 *692:9 *692:15 46.6039 
4 *692:15 *692:19 45.3638 
5 *692:19 *692:25 18.2906 
6 *692:25 *692:27 3.41 
7 *692:27 *692:29 423.304 
8 *692:29 *789:hiz 13.8042 
9 *692:25 *692:44 49.3698 
10 *692:44 *790:hiz 1.29464 
*END

*D_NET *693 0.153544
*CONN
*I *789:iso_en I *D CF_ADC_SAR12
*I *788:analog_ctrl[14] O *D afe_wb
*CAP
1 *789:iso_en 0.00673698
2 *788:analog_ctrl[14] 0.000214864
3 *693:13 0.0431076
4 *693:11 0.0363707
5 *693:9 0.0269046
6 *693:7 0.0271195
7 *789:iso_en *789:sample_width[4] 9.06572e-05
8 *789:iso_en *789:sample_width[8] 6.63171e-06
9 *789:iso_en *789:sample_width[9] 6.63171e-06
10 *789:iso_en *789:resolution[0] 6.63171e-06
11 *789:iso_en *789:resolution[1] 9.97767e-06
12 *789:iso_en *789:test_scanin 0.00016317
13 *789:iso_en *789:sel_csel_dft[0] 0
14 *789:iso_en *789:sel_csel_dft[3] 6.63171e-06
15 *789:iso_en *789:sel_csel_dft[1] 6.63171e-06
16 *789:iso_en *789:sample_width[2] 0.000728005
17 *789:iso_en *703:19 0
18 *789:iso_en *734:27 9.97767e-06
19 *693:7 *694:11 3.27392e-05
20 *693:9 *694:11 0.000335614
21 *693:9 *695:9 0
22 *693:13 *717:13 0
23 *652:23 *789:iso_en 6.63171e-06
24 *692:7 *693:7 3.27392e-05
25 *692:9 *693:7 4.20253e-06
26 *692:9 *693:9 0.0116431
*RES
1 *788:analog_ctrl[14] *693:7 0.471567 
2 *693:7 *693:9 94.0219 
3 *693:9 *693:11 3.41 
4 *693:11 *693:13 112.653 
5 *693:13 *789:iso_en 31.664 
*END

*D_NET *694 0.208565
*CONN
*I *789:enable_hv I *D CF_ADC_SAR12
*I *790:enable_hv I *D CF_ADC_SAR12_sar_refs
*I *788:analog_ctrl[15] O *D afe_wb
*CAP
1 *789:enable_hv 0.000999822
2 *790:enable_hv 2.31538e-05
3 *788:analog_ctrl[15] 0.000938513
4 *694:43 0.0136642
5 *694:33 0.0312505
6 *694:31 0.0312273
7 *694:29 0.0142501
8 *694:21 0.0154826
9 *694:17 0.0320605
10 *694:15 0.0181636
11 *694:13 0.00180461
12 *694:11 0.00274312
13 *789:enable_hv *789:trimunit 5.19335e-05
14 *789:enable_hv *789:pd 0.00167581
15 *789:enable_hv *789:dft_inc[2] 0.000225069
16 *789:enable_hv *789:dft_inc[0] 1.65768e-05
17 *789:enable_hv *789:dft_outc[0] 0.00026153
18 *694:11 *695:7 3.69417e-05
19 *694:11 *695:9 0.000331411
20 *694:13 *735:13 0.00176916
21 *694:13 *759:13 0
22 *694:17 *738:17 0.0185951
23 *694:21 *718:13 0.0025758
24 *694:29 *733:13 1.46723e-05
25 *694:29 *776:37 8.29047e-05
26 *694:33 *790:EN_RESVDA 0
27 *694:33 *742:23 0
28 *694:43 *733:13 0.00268472
29 *694:43 *776:37 0.0153097
30 *789:refclk *789:enable_hv 9.76559e-05
31 *790:pd_vcmbuf *694:33 0
32 *105:13 *694:17 0
33 *120:17 *694:13 0.00043421
34 *528:19 *694:43 0
35 *651:9 *789:enable_hv 0
36 *671:13 *694:13 0.00142529
37 *693:7 *694:11 3.27392e-05
38 *693:9 *694:11 0.000335614
*RES
1 *788:analog_ctrl[15] *694:11 6.27073 
2 *694:11 *694:13 53.5536 
3 *694:13 *694:15 3.41 
4 *694:15 *694:17 63.5738 
5 *694:17 *694:21 49.9055 
6 *694:21 *694:29 1.58117 
7 *694:29 *694:31 3.41 
8 *694:31 *694:33 93.5535 
9 *694:33 *790:enable_hv 3.88321 
10 *694:29 *694:43 60.1318 
11 *694:43 *789:enable_hv 11.8383 
*END

*D_NET *695 0.138829
*CONN
*I *789:trimunit I *D CF_ADC_SAR12
*I *788:analog_ctrl[16] O *D afe_wb
*CAP
1 *789:trimunit 0.00348608
2 *788:analog_ctrl[16] 0.000214864
3 *695:17 0.0201677
4 *695:15 0.0286604
5 *695:9 0.0287675
6 *695:7 0.0170035
7 *789:trimunit *789:dft_inc[2] 0.000920844
8 *789:trimunit *789:dft_inc[0] 0.00168786
9 *789:trimunit *789:icont_lv[1] 0.00283013
10 *789:trimunit *789:icont_lv[0] 9.32365e-05
11 *789:trimunit *696:13 0.00268229
12 *789:trimunit *724:13 0.000166608
13 *695:7 *696:7 3.27392e-05
14 *695:9 *696:7 4.20253e-06
15 *695:9 *696:9 0.0108363
16 *695:15 *696:13 0.00895553
17 *695:17 *696:13 0.0118988
18 *695:17 *725:13 0
19 *789:enable_hv *789:trimunit 5.19335e-05
20 *693:9 *695:9 0
21 *694:11 *695:7 3.69417e-05
22 *694:11 *695:9 0.000331411
*RES
1 *788:analog_ctrl[16] *695:7 0.471567 
2 *695:7 *695:9 63.3215 
3 *695:9 *695:15 38.7634 
4 *695:15 *695:17 68.15 
5 *695:17 *789:trimunit 26.387 
*END

*D_NET *696 0.156714
*CONN
*I *789:dly_inc I *D CF_ADC_SAR12
*I *788:analog_ctrl[17] O *D afe_wb
*CAP
1 *789:dly_inc 0.000296097
2 *788:analog_ctrl[17] 0.000215663
3 *696:13 0.0154553
4 *696:11 0.0151593
5 *696:9 0.0136999
6 *696:7 0.0139156
7 *789:dly_inc *789:icont_lv[1] 0.000112881
8 *789:dly_inc *789:dcen 0.000316689
9 *696:7 *697:7 3.1676e-05
10 *696:9 *697:7 4.20253e-06
11 *696:9 *697:9 0.00873553
12 *696:13 *697:13 0.0543321
13 *696:13 *724:13 2.95768e-05
14 *789:trimunit *696:13 0.00268229
15 *695:7 *696:7 3.27392e-05
16 *695:9 *696:7 4.20253e-06
17 *695:9 *696:9 0.0108363
18 *695:15 *696:13 0.00895553
19 *695:17 *696:13 0.0118988
*RES
1 *788:analog_ctrl[17] *696:7 0.471567 
2 *696:7 *696:9 63.0333 
3 *696:9 *696:11 3.41 
4 *696:11 *696:13 114.251 
5 *696:13 *789:dly_inc 10.9158 
*END

*D_NET *697 0.182497
*CONN
*I *789:dcen I *D CF_ADC_SAR12
*I *788:analog_ctrl[18] O *D afe_wb
*CAP
1 *789:dcen 0.000529445
2 *788:analog_ctrl[18] 0.000218108
3 *697:13 0.0125714
4 *697:11 0.012042
5 *697:9 0.0158812
6 *697:7 0.0160993
7 *697:7 *698:7 3.1676e-05
8 *697:9 *698:7 4.20253e-06
9 *697:9 *698:9 0.00717853
10 *697:13 *724:13 0.0545212
11 *789:dly_inc *789:dcen 0.000316689
12 *696:7 *697:7 3.1676e-05
13 *696:9 *697:7 4.20253e-06
14 *696:9 *697:9 0.00873553
15 *696:13 *697:13 0.0543321
*RES
1 *788:analog_ctrl[18] *697:7 0.471567 
2 *697:7 *697:9 62.8891 
3 *697:9 *697:11 3.41 
4 *697:11 *697:13 114.57 
5 *697:13 *789:dcen 11.8488 
*END

*D_NET *698 0.12073
*CONN
*I *789:pumpclk I *D CF_ADC_SAR12
*I *788:analog_ctrl[19] O *D afe_wb
*CAP
1 *789:pumpclk 0.000479843
2 *788:analog_ctrl[19] 0.000217309
3 *698:13 0.0409319
4 *698:11 0.0404521
5 *698:9 0.0117474
6 *698:7 0.0119647
7 *789:pumpclk *789:en_pump_lv 7.09536e-05
8 *698:7 *700:11 3.27392e-05
9 *698:9 *700:11 0.00761899
10 *698:13 *789:en_pump_lv 0
11 *698:13 *730:13 0
12 *119:17 *698:13 0
13 *697:7 *698:7 3.1676e-05
14 *697:9 *698:7 4.20253e-06
15 *697:9 *698:9 0.00717853
*RES
1 *788:analog_ctrl[19] *698:7 0.471567 
2 *698:7 *698:9 51.6467 
3 *698:9 *698:11 3.41 
4 *698:11 *698:13 115.316 
5 *698:13 *789:pumpclk 10.449 
*END

*D_NET *699 0.117265
*CONN
*I *792:en_pd I *D CF_BUF_HIZ
*I *788:analog_ctrl[1] O *D afe_wb
*CAP
1 *792:en_pd 0.00395788
2 *788:analog_ctrl[1] 0.000838552
3 *699:13 0.0114785
4 *699:11 0.00835914
5 *699:11 *710:11 0.000214499
6 *699:13 *732:13 0.0342288
7 *699:13 *756:13 0.0399562
8 *792:e_pd *792:en_pd 0.00989828
9 *120:17 *699:13 0.00791001
10 *665:11 *699:11 0.000423355
11 *671:13 *699:13 0
*RES
1 *788:analog_ctrl[1] *699:11 5.86967 
2 *699:11 *699:13 490.696 
3 *699:13 *792:en_pd 30.7682 
*END

*D_NET *700 0.113067
*CONN
*I *789:en_pump_lv I *D CF_ADC_SAR12
*I *788:analog_ctrl[20] O *D afe_wb
*CAP
1 *789:en_pump_lv 0.00519432
2 *788:analog_ctrl[20] 0.00951945
3 *700:13 0.0400264
4 *700:11 0.0443516
5 *789:en_pump_lv *789:dft_outc[2] 0.000119568
6 *789:en_pump_lv *729:13 0
7 *700:11 *701:11 0.00583113
8 *700:11 *702:9 0
9 *789:refby2 *700:13 6.08627e-05
10 *789:pumpclk *789:en_pump_lv 7.09536e-05
11 *661:30 *700:13 0.000240899
12 *698:7 *700:11 3.27392e-05
13 *698:9 *700:11 0.00761899
14 *698:13 *789:en_pump_lv 0
*RES
1 *788:analog_ctrl[20] *700:11 48.1775 
2 *700:11 *700:13 108.818 
3 *700:13 *789:en_pump_lv 31.8017 
*END

*D_NET *701 0.232117
*CONN
*I *789:scan_test_mode I *D CF_ADC_SAR12
*I *788:analog_ctrl[21] O *D afe_wb
*CAP
1 *789:scan_test_mode 0.000583021
2 *788:analog_ctrl[21] 0.00683622
3 *701:17 0.0159265
4 *701:15 0.0153435
5 *701:13 0.00943239
6 *701:11 0.0162686
7 *701:11 *702:7 3.69417e-05
8 *701:11 *702:9 0.00579737
9 *701:13 *715:13 0.0555207
10 *26:10 *701:13 6.30929e-05
11 *649:13 *701:13 0.0491963
12 *691:13 *701:13 0.00273498
13 *691:17 *701:17 0.0485464
14 *700:11 *701:11 0.00583113
*RES
1 *788:analog_ctrl[21] *701:11 37.7639 
2 *701:11 *701:13 687.411 
3 *701:13 *701:15 3.41 
4 *701:15 *701:17 75.2125 
5 *701:17 *789:scan_test_mode 14.1243 
*END

*D_NET *702 0.207337
*CONN
*I *789:test_scanin I *D CF_ADC_SAR12
*I *788:analog_ctrl[22] O *D afe_wb
*CAP
1 *789:test_scanin 0.00042347
2 *788:analog_ctrl[22] 0.000214864
3 *702:13 0.0192635
4 *702:11 0.01884
5 *702:9 0.0285896
6 *702:7 0.0288045
7 *789:test_scanin *789:test_scanen 8.0858e-05
8 *702:7 *703:7 3.27392e-05
9 *702:9 *703:7 4.20253e-06
10 *702:9 *703:9 0.0128492
11 *702:9 *704:9 0
12 *789:iso_en *789:test_scanin 0.00016317
13 *658:10 *702:13 0.0388906
14 *687:13 *702:13 0.0533457
15 *700:11 *702:9 0
16 *701:11 *702:7 3.69417e-05
17 *701:11 *702:9 0.00579737
*RES
1 *788:analog_ctrl[22] *702:7 0.471567 
2 *702:7 *702:9 108.003 
3 *702:9 *702:11 3.41 
4 *702:11 *702:13 116.594 
5 *702:13 *789:test_scanin 10.0121 
*END

*D_NET *703 0.157583
*CONN
*I *789:test_scanen I *D CF_ADC_SAR12
*I *788:analog_ctrl[23] O *D afe_wb
*CAP
1 *789:test_scanen 0.000532285
2 *788:analog_ctrl[23] 0.000214864
3 *703:19 0.0115511
4 *703:13 0.0481507
5 *703:11 0.0371319
6 *703:9 0.0142232
7 *703:7 0.0144381
8 *789:test_scanen *789:sel_csel_dft[0] 0
9 *703:7 *704:7 3.27392e-05
10 *703:9 *704:7 4.20253e-06
11 *703:9 *704:9 0.0128558
12 *703:19 *789:sample_width[9] 0
13 *703:19 *789:sel_csel_dft[0] 0.00548085
14 *789:test_scanin *789:test_scanen 8.0858e-05
15 *789:iso_en *703:19 0
16 *702:7 *703:7 3.27392e-05
17 *702:9 *703:7 4.20253e-06
18 *702:9 *703:9 0.0128492
*RES
1 *788:analog_ctrl[23] *703:7 0.471567 
2 *703:7 *703:9 74.5639 
3 *703:9 *703:11 3.41 
4 *703:11 *703:13 115.423 
5 *703:13 *703:19 41.7112 
6 *703:19 *789:test_scanen 10.9911 
*END

*D_NET *704 0.177707
*CONN
*I *789:test_sea I *D CF_ADC_SAR12
*I *788:analog_ctrl[24] O *D afe_wb
*CAP
1 *789:test_sea 0.000827866
2 *788:analog_ctrl[24] 0.000215663
3 *704:13 0.0470649
4 *704:11 0.046237
5 *704:9 0.025635
6 *704:7 0.0258506
7 *704:7 *705:7 3.1676e-05
8 *704:9 *705:7 4.20253e-06
9 *704:9 *705:9 0.0134731
10 *789:hiz *789:test_sea 0.00016097
11 *789:reset_n *789:test_sea 3.5669e-05
12 *647:9 *789:test_sea 0.0006011
13 *648:9 *789:test_sea 0.00108083
14 *650:11 *789:test_sea 0.00290985
15 *656:8 *789:test_sea 0.000685693
16 *676:13 *704:13 0
17 *702:9 *704:9 0
18 *703:7 *704:7 3.27392e-05
19 *703:9 *704:7 4.20253e-06
20 *703:9 *704:9 0.0128558
*RES
1 *788:analog_ctrl[24] *704:7 0.471567 
2 *704:7 *704:9 105.985 
3 *704:9 *704:11 3.41 
4 *704:11 *704:13 119.897 
5 *704:13 *789:test_sea 12.8147 
*END

*D_NET *705 0.180505
*CONN
*I *789:resolution[0] I *D CF_ADC_SAR12
*I *788:analog_ctrl[25] O *D afe_wb
*CAP
1 *789:resolution[0] 0.00616787
2 *788:analog_ctrl[25] 0.000217309
3 *705:13 0.0293586
4 *705:11 0.0231907
5 *705:9 0.0218179
6 *705:7 0.0220352
7 *789:resolution[0] *789:resolution[1] 0.00339119
8 *705:7 *706:7 3.27392e-05
9 *705:9 *706:7 4.20253e-06
10 *705:9 *706:9 0.0142026
11 *705:9 *707:9 0
12 *789:iso_en *789:resolution[0] 6.63171e-06
13 *107:46 *789:resolution[0] 0
14 *650:13 *705:13 0.0398883
15 *656:10 *789:resolution[0] 0.00202006
16 *676:13 *789:resolution[0] 0.00466298
17 *704:7 *705:7 3.1676e-05
18 *704:9 *705:7 4.20253e-06
19 *704:9 *705:9 0.0134731
*RES
1 *788:analog_ctrl[25] *705:7 0.471567 
2 *705:7 *705:9 96.6163 
3 *705:9 *705:11 3.41 
4 *705:11 *705:13 99.9753 
5 *705:13 *789:resolution[0] 44.2644 
*END

*D_NET *706 0.15571
*CONN
*I *789:resolution[1] I *D CF_ADC_SAR12
*I *788:analog_ctrl[26] O *D afe_wb
*CAP
1 *789:resolution[1] 0.00943474
2 *788:analog_ctrl[26] 0.000214864
3 *706:13 0.0452593
4 *706:11 0.0358245
5 *706:9 0.0155556
6 *706:7 0.0157704
7 *706:7 *707:7 3.27392e-05
8 *706:9 *707:7 4.20253e-06
9 *706:9 *707:9 0.0142091
10 *789:resolution[0] *789:resolution[1] 0.00339119
11 *789:iso_en *789:resolution[1] 9.97767e-06
12 *656:10 *789:resolution[1] 0.00176337
13 *705:7 *706:7 3.27392e-05
14 *705:9 *706:7 4.20253e-06
15 *705:9 *706:9 0.0142026
*RES
1 *788:analog_ctrl[26] *706:7 0.471567 
2 *706:7 *706:9 82.203 
3 *706:9 *706:11 3.41 
4 *706:11 *706:13 111.268 
5 *706:13 *789:resolution[1] 48.4561 
*END

*D_NET *707 0.182933
*CONN
*I *789:sample_width[0] I *D CF_ADC_SAR12
*I *788:analog_ctrl[27] O *D afe_wb
*CAP
1 *789:sample_width[0] 0.000239731
2 *788:analog_ctrl[27] 0.000214864
3 *707:13 0.0259301
4 *707:11 0.0256904
5 *707:9 0.0214018
6 *707:7 0.0216167
7 *707:7 *708:7 3.27392e-05
8 *707:9 *708:7 4.20253e-06
9 *707:9 *708:9 0.0169737
10 *707:9 *709:9 0
11 *707:13 *789:sample_width[3] 0
12 *707:13 *789:sample_width[4] 0
13 *707:13 *709:13 0.056183
14 *707:13 *713:13 0.0003995
15 *705:9 *707:9 0
16 *706:7 *707:7 3.27392e-05
17 *706:9 *707:7 4.20253e-06
18 *706:9 *707:9 0.0142091
*RES
1 *788:analog_ctrl[27] *707:7 0.471567 
2 *707:7 *707:9 102.958 
3 *707:9 *707:11 3.41 
4 *707:11 *707:13 119.79 
5 *707:13 *789:sample_width[0] 7.5156 
*END

*D_NET *708 0.16307
*CONN
*I *789:sample_width[1] I *D CF_ADC_SAR12
*I *788:analog_ctrl[28] O *D afe_wb
*CAP
1 *789:sample_width[1] 0.000974327
2 *788:analog_ctrl[28] 0.000214864
3 *708:13 0.0376157
4 *708:11 0.0366414
5 *708:9 0.0186699
6 *708:7 0.0188848
7 *789:sample_width[1] *789:sample_width[5] 0.000729276
8 *708:7 *709:7 3.27392e-05
9 *708:9 *709:7 4.20253e-06
10 *708:9 *709:9 0.0169803
11 *647:9 *789:sample_width[1] 0.0007688
12 *648:9 *789:sample_width[1] 0.00140089
13 *650:11 *789:sample_width[1] 0.00352414
14 *663:36 *708:13 0.00961769
15 *707:7 *708:7 3.27392e-05
16 *707:9 *708:7 4.20253e-06
17 *707:9 *708:9 0.0169737
*RES
1 *788:analog_ctrl[28] *708:7 0.471567 
2 *708:7 *708:9 98.3459 
3 *708:9 *708:11 3.41 
4 *708:11 *708:13 121.921 
5 *708:13 *789:sample_width[1] 12.9416 
*END

*D_NET *709 0.214081
*CONN
*I *789:sample_width[2] I *D CF_ADC_SAR12
*I *788:analog_ctrl[29] O *D afe_wb
*CAP
1 *789:sample_width[2] 0.000569558
2 *788:analog_ctrl[29] 0.000214856
3 *709:13 0.0131205
4 *709:11 0.012551
5 *709:9 0.0243453
6 *709:7 0.0245601
7 *789:sample_width[2] *789:sample_width[3] 8.0858e-05
8 *789:sample_width[2] *789:sel_csel_dft[0] 0
9 *709:7 *711:9 3.28228e-05
10 *709:9 *711:9 0.00807531
11 *709:9 *712:9 0
12 *709:13 *713:13 0.0566028
13 *789:iso_en *789:sample_width[2] 0.000728005
14 *707:9 *709:9 0
15 *707:13 *709:13 0.056183
16 *708:7 *709:7 3.27392e-05
17 *708:9 *709:7 4.20253e-06
18 *708:9 *709:9 0.0169803
*RES
1 *788:analog_ctrl[29] *709:7 0.471567 
2 *709:7 *709:9 102.814 
3 *709:9 *709:11 3.41 
4 *709:11 *709:13 118.938 
5 *709:13 *789:sample_width[2] 13.5108 
*END

*D_NET *710 0.106943
*CONN
*I *792:tp I *D CF_BUF_HIZ
*I *788:analog_ctrl[2] O *D afe_wb
*CAP
1 *792:tp 8.6886e-05
2 *788:analog_ctrl[2] 0.0012688
3 *710:29 0.00828013
4 *710:13 0.0154033
5 *710:11 0.00847888
6 *792:tp *792:e_na_boost 7.94598e-05
7 *710:11 *721:13 0.000465047
8 *710:13 *736:15 0.000169619
9 *710:13 *743:13 0.0345335
10 *710:13 *755:13 0.0134456
11 *710:29 *743:29 0.0231012
12 *12:30 *792:tp 1.45499e-05
13 *12:30 *710:29 0.000773516
14 *22:18 *710:29 6.04528e-06
15 *24:26 *710:29 0.000599386
16 *665:11 *710:11 0
17 *665:13 *710:13 2.2355e-05
18 *699:11 *710:11 0.000214499
*RES
1 *788:analog_ctrl[2] *710:11 6.9914 
2 *710:11 *710:13 424.518 
3 *710:13 *710:29 45.9699 
4 *710:29 *792:tp 6.73661 
*END

*D_NET *711 0.165404
*CONN
*I *789:sample_width[3] I *D CF_ADC_SAR12
*I *788:analog_ctrl[30] O *D afe_wb
*CAP
1 *789:sample_width[3] 0.0253261
2 *788:analog_ctrl[30] 0.0102751
3 *711:13 0.0503795
4 *711:11 0.0250534
5 *711:9 0.0102751
6 *789:sample_width[3] *789:sample_width[4] 0.00197891
7 *789:sample_width[3] *789:sample_width[8] 0
8 *711:9 *712:7 3.65595e-05
9 *711:9 *712:9 0.00649406
10 *711:13 *727:13 0.0273967
11 *789:sample_width[2] *789:sample_width[3] 8.0858e-05
12 *707:13 *789:sample_width[3] 0
13 *709:7 *711:9 3.28228e-05
14 *709:9 *711:9 0.00807531
*RES
1 *788:analog_ctrl[30] *711:9 47.2225 
2 *711:9 *711:11 3.41 
3 *711:11 *711:13 107.539 
4 *711:13 *789:sample_width[3] 29.0143 
*END

*D_NET *712 0.163654
*CONN
*I *789:sample_width[4] I *D CF_ADC_SAR12
*I *788:analog_ctrl[31] O *D afe_wb
*CAP
1 *789:sample_width[4] 0.00517631
2 *788:analog_ctrl[31] 0.000217888
3 *712:13 0.0427286
4 *712:11 0.0375522
5 *712:9 0.0224613
6 *712:7 0.0226792
7 *789:sample_width[4] *789:sample_width[8] 0
8 *789:sample_width[4] *789:sample_width[9] 0
9 *789:sample_width[4] *734:27 0.012435
10 *712:7 *713:7 3.1676e-05
11 *712:9 *713:7 4.20253e-06
12 *712:9 *713:9 0.0117674
13 *789:sample_width[3] *789:sample_width[4] 0.00197891
14 *789:iso_en *789:sample_width[4] 9.06572e-05
15 *707:13 *789:sample_width[4] 0
16 *709:9 *712:9 0
17 *711:9 *712:7 3.65595e-05
18 *711:9 *712:9 0.00649406
*RES
1 *788:analog_ctrl[31] *712:7 0.471567 
2 *712:7 *712:9 84.365 
3 *712:9 *712:11 3.41 
4 *712:11 *712:13 116.701 
5 *712:13 *789:sample_width[4] 40.2039 
*END

*D_NET *713 0.190079
*CONN
*I *789:sample_width[5] I *D CF_ADC_SAR12
*I *788:analog_ctrl[32] O *D afe_wb
*CAP
1 *789:sample_width[5] 0.000448217
2 *788:analog_ctrl[32] 0.000218108
3 *713:13 0.0271707
4 *713:11 0.0267224
5 *713:9 0.0256955
6 *713:7 0.0259136
7 *789:sample_width[5] *789:sample_width[6] 2.21146e-05
8 *713:7 *714:7 3.1676e-05
9 *713:9 *714:7 4.20253e-06
10 *713:9 *714:9 0.0140727
11 *789:sample_width[1] *789:sample_width[5] 0.000729276
12 *650:11 *789:sample_width[5] 0.000245005
13 *707:13 *713:13 0.0003995
14 *709:13 *713:13 0.0566028
15 *712:7 *713:7 3.1676e-05
16 *712:9 *713:7 4.20253e-06
17 *712:9 *713:9 0.0117674
*RES
1 *788:analog_ctrl[32] *713:7 0.471567 
2 *713:7 *713:9 102.67 
3 *713:9 *713:11 3.41 
4 *713:11 *713:13 123.519 
5 *713:13 *789:sample_width[5] 9.41978 
*END

*D_NET *714 0.190038
*CONN
*I *789:sample_width[6] I *D CF_ADC_SAR12
*I *788:analog_ctrl[33] O *D afe_wb
*CAP
1 *789:sample_width[6] 0.000464899
2 *788:analog_ctrl[33] 0.000217309
3 *714:13 0.0271321
4 *714:11 0.0266672
5 *714:9 0.0268779
6 *714:7 0.0270952
7 *789:sample_width[6] *789:sample_width[7] 6.93906e-05
8 *714:7 *715:11 3.27392e-05
9 *714:9 *715:11 0.0057918
10 *714:9 *716:9 0
11 *714:13 *731:13 0.056967
12 *789:sample_width[5] *789:sample_width[6] 2.21146e-05
13 *118:17 *714:13 0.00115405
14 *650:11 *789:sample_width[6] 0.00248517
15 *651:9 *789:sample_width[6] 0.000952419
16 *713:7 *714:7 3.1676e-05
17 *713:9 *714:7 4.20253e-06
18 *713:9 *714:9 0.0140727
*RES
1 *788:analog_ctrl[33] *714:7 0.471567 
2 *714:7 *714:9 100.796 
3 *714:9 *714:11 3.41 
4 *714:11 *714:13 124.265 
5 *714:13 *789:sample_width[6] 12.5344 
*END

*D_NET *715 0.234445
*CONN
*I *789:sample_width[7] I *D CF_ADC_SAR12
*I *788:analog_ctrl[34] O *D afe_wb
*CAP
1 *789:sample_width[7] 0.000265461
2 *788:analog_ctrl[34] 0.00680679
3 *715:17 0.0156739
4 *715:15 0.0154085
5 *715:13 0.00979434
6 *715:11 0.0166011
7 *715:11 *716:7 3.69417e-05
8 *715:11 *716:9 0.0057876
9 *715:13 *726:13 0.057763
10 *789:sample_width[6] *789:sample_width[7] 6.93906e-05
11 *26:10 *715:13 0.000124636
12 *649:9 *715:17 0.0447685
13 *691:17 *715:17 0
14 *701:13 *715:13 0.0555207
15 *714:7 *715:11 3.27392e-05
16 *714:9 *715:11 0.0057918
*RES
1 *788:analog_ctrl[34] *715:11 37.6918 
2 *715:11 *715:13 713.518 
3 *715:13 *715:15 3.41 
4 *715:15 *715:17 70.9606 
5 *715:17 *789:sample_width[7] 8.32964 
*END

*D_NET *716 0.157803
*CONN
*I *789:sample_width[8] I *D CF_ADC_SAR12
*I *788:analog_ctrl[35] O *D afe_wb
*CAP
1 *789:sample_width[8] 0.00495681
2 *788:analog_ctrl[35] 0.000214864
3 *716:19 0.0153379
4 *716:13 0.0408162
5 *716:11 0.0304351
6 *716:9 0.0168382
7 *716:7 0.0170531
8 *789:sample_width[8] *789:sample_width[9] 0.00128232
9 *716:7 *717:7 3.27392e-05
10 *716:9 *717:7 4.20253e-06
11 *716:9 *717:9 0.0125528
12 *789:sample_width[3] *789:sample_width[8] 0
13 *789:sample_width[4] *789:sample_width[8] 0
14 *789:iso_en *789:sample_width[8] 6.63171e-06
15 *19:41 *716:13 0.012448
16 *714:9 *716:9 0
17 *715:11 *716:7 3.69417e-05
18 *715:11 *716:9 0.0057876
*RES
1 *788:analog_ctrl[35] *716:7 0.471567 
2 *716:7 *716:9 72.8343 
3 *716:9 *716:11 3.41 
4 *716:11 *716:13 107.539 
5 *716:13 *716:19 39.0087 
6 *716:19 *789:sample_width[8] 23.9692 
*END

*D_NET *717 0.155218
*CONN
*I *789:sample_width[9] I *D CF_ADC_SAR12
*I *788:analog_ctrl[36] O *D afe_wb
*CAP
1 *789:sample_width[9] 0.00501468
2 *788:analog_ctrl[36] 0.000214864
3 *717:13 0.0436376
4 *717:11 0.0386229
5 *717:9 0.021174
6 *717:7 0.0213889
7 *717:7 *718:7 3.27392e-05
8 *717:9 *718:7 4.20253e-06
9 *717:9 *718:9 0.0112497
10 *789:sample_width[4] *789:sample_width[9] 0
11 *789:sample_width[8] *789:sample_width[9] 0.00128232
12 *789:iso_en *789:sample_width[9] 6.63171e-06
13 *693:13 *717:13 0
14 *703:19 *789:sample_width[9] 0
15 *716:7 *717:7 3.27392e-05
16 *716:9 *717:7 4.20253e-06
17 *716:9 *717:9 0.0125528
*RES
1 *788:analog_ctrl[36] *717:7 0.471567 
2 *717:7 *717:9 93.013 
3 *717:9 *717:11 3.41 
4 *717:11 *717:13 119.897 
5 *717:13 *789:sample_width[9] 30.7929 
*END

*D_NET *718 0.161086
*CONN
*I *789:cap_trim[0] I *D CF_ADC_SAR12
*I *788:analog_ctrl[37] O *D afe_wb
*CAP
1 *789:cap_trim[0] 0.000201912
2 *788:analog_ctrl[37] 0.000215663
3 *718:13 0.0249984
4 *718:11 0.0247965
5 *718:9 0.0141488
6 *718:7 0.0143644
7 *789:cap_trim[0] *789:cap_trim[2] 0.000169638
8 *789:cap_trim[0] *789:cap_trim[1] 6.46371e-05
9 *789:cap_trim[0] *789:dft_inc[3] 0
10 *789:cap_trim[0] *789:dft_inc[1] 5.44456e-05
11 *718:7 *719:7 3.1676e-05
12 *718:9 *719:7 4.20253e-06
13 *718:9 *719:9 0.00905017
14 *718:9 *720:9 0
15 *718:13 *789:dft_outc[2] 0
16 *718:13 *719:13 2.95768e-05
17 *718:13 *720:13 0.0583924
18 *19:20 *718:13 0.000700596
19 *694:21 *718:13 0.0025758
20 *717:7 *718:7 3.27392e-05
21 *717:9 *718:7 4.20253e-06
22 *717:9 *718:9 0.0112497
*RES
1 *788:analog_ctrl[37] *718:7 0.471567 
2 *718:7 *718:9 65.3394 
3 *718:9 *718:11 3.41 
4 *718:11 *718:13 122.88 
5 *718:13 *789:cap_trim[0] 10.088 
*END

*D_NET *719 0.193951
*CONN
*I *789:cap_trim[1] I *D CF_ADC_SAR12
*I *788:analog_ctrl[38] O *D afe_wb
*CAP
1 *789:cap_trim[1] 0.000285931
2 *788:analog_ctrl[38] 0.000218108
3 *719:13 0.0133746
4 *719:11 0.0130886
5 *719:9 0.0156529
6 *719:7 0.015871
7 *789:cap_trim[1] *789:cap_trim[2] 6.46371e-05
8 *789:cap_trim[1] *789:dft_inc[1] 1.47728e-05
9 *719:7 *720:7 3.1676e-05
10 *719:9 *720:7 4.20253e-06
11 *719:9 *720:9 0.00905266
12 *719:13 *720:13 0.0585815
13 *719:13 *725:13 0.0585305
14 *789:cap_trim[0] *789:cap_trim[1] 6.46371e-05
15 *19:20 *719:13 0
16 *718:7 *719:7 3.1676e-05
17 *718:9 *719:7 4.20253e-06
18 *718:9 *719:9 0.00905017
19 *718:13 *719:13 2.95768e-05
*RES
1 *788:analog_ctrl[38] *719:7 0.471567 
2 *719:7 *719:9 65.0511 
3 *719:9 *719:11 3.41 
4 *719:11 *719:13 123.413 
5 *719:13 *789:cap_trim[1] 20.7289 
*END

*D_NET *720 0.193231
*CONN
*I *789:cap_trim[2] I *D CF_ADC_SAR12
*I *788:analog_ctrl[39] O *D afe_wb
*CAP
1 *789:cap_trim[2] 0.000222422
2 *788:analog_ctrl[39] 0.000217309
3 *720:13 0.0134371
4 *720:11 0.0132147
5 *720:9 0.0146246
6 *720:7 0.0148419
7 *789:cap_trim[2] *789:dft_inc[1] 0.000182636
8 *720:7 *722:7 3.27392e-05
9 *720:9 *722:7 4.20253e-06
10 *720:9 *722:9 0.010072
11 *720:9 *739:17 0
12 *720:13 *725:13 8.49279e-05
13 *789:cap_trim[1] *789:cap_trim[2] 6.46371e-05
14 *789:cap_trim[0] *789:cap_trim[2] 0.000169638
15 *718:9 *720:9 0
16 *718:13 *720:13 0.0583924
17 *719:7 *720:7 3.1676e-05
18 *719:9 *720:7 4.20253e-06
19 *719:9 *720:9 0.00905266
20 *719:13 *720:13 0.0585815
*RES
1 *788:analog_ctrl[39] *720:7 0.471567 
2 *720:7 *720:9 65.1953 
3 *720:9 *720:11 3.41 
4 *720:11 *720:13 123.626 
5 *720:13 *789:cap_trim[2] 10.6951 
*END

*D_NET *721 0.111782
*CONN
*I *792:clk2_boost I *D CF_BUF_HIZ
*I *788:analog_ctrl[3] O *D afe_wb
*CAP
1 *792:clk2_boost 0.000215693
2 *788:analog_ctrl[3] 0.00151762
3 *721:21 0.0141222
4 *721:19 0.0198167
5 *721:13 0.00742783
6 *792:clk2_boost *792:clk1_boostr 0.000284119
7 *792:clk2_boost *732:27 0.000399659
8 *721:13 *732:11 0.000268636
9 *721:13 *743:11 0
10 *721:13 *754:13 0.00334113
11 *721:19 *754:19 0.0225663
12 *721:21 *754:21 0.0318634
13 *788:adc_data[10] *721:19 0.000166882
14 *23:18 *792:clk2_boost 4.3353e-06
15 *24:26 *792:clk2_boost 1.35971e-05
16 *25:30 *792:clk2_boost 0
17 *103:21 *721:19 0.00127863
18 *120:17 *721:13 0.000397833
19 *650:17 *721:19 0.00429074
20 *671:13 *721:13 0.00334113
21 *710:11 *721:13 0.000465047
*RES
1 *788:analog_ctrl[3] *721:13 47.4966 
2 *721:13 *721:19 42.2878 
3 *721:19 *721:21 66.6303 
4 *721:21 *792:clk2_boost 16.9923 
*END

*D_NET *722 0.139207
*CONN
*I *789:icont_lv[0] I *D CF_ADC_SAR12
*I *788:analog_ctrl[40] O *D afe_wb
*CAP
1 *789:icont_lv[0] 0.000758077
2 *788:analog_ctrl[40] 0.000214864
3 *722:13 0.0458865
4 *722:11 0.0451284
5 *722:9 0.0112593
6 *722:7 0.0114742
7 *789:icont_lv[0] *789:dft_inc[2] 0.00323881
8 *789:icont_lv[0] *789:dft_inc[0] 0.000206547
9 *722:7 *723:7 3.27392e-05
10 *722:9 *723:7 4.20253e-06
11 *722:9 *723:9 0.00976763
12 *722:9 *724:9 0
13 *789:trimunit *789:icont_lv[0] 9.32365e-05
14 *651:9 *789:icont_lv[0] 0.00103399
15 *720:7 *722:7 3.27392e-05
16 *720:9 *722:7 4.20253e-06
17 *720:9 *722:9 0.010072
*RES
1 *788:analog_ctrl[40] *722:7 0.471567 
2 *722:7 *722:9 58.421 
3 *722:9 *722:11 3.41 
4 *722:11 *722:13 127.248 
5 *722:13 *789:icont_lv[0] 14.1167 
*END

*D_NET *723 0.130921
*CONN
*I *789:icont_lv[1] I *D CF_ADC_SAR12
*I *788:analog_ctrl[41] O *D afe_wb
*CAP
1 *789:icont_lv[1] 0.00396213
2 *788:analog_ctrl[41] 0.000214864
3 *723:13 0.0403691
4 *723:11 0.036407
5 *723:9 0.0107087
6 *723:7 0.0109235
7 *789:icont_lv[1] *789:dft_outc[2] 0
8 *789:icont_lv[1] *725:13 0
9 *723:7 *724:7 3.27392e-05
10 *723:9 *724:7 4.20253e-06
11 *723:9 *724:9 0.00977419
12 *789:trimunit *789:icont_lv[1] 0.00283013
13 *789:dly_inc *789:icont_lv[1] 0.000112881
14 *15:18 *723:13 0.00577693
15 *722:7 *723:7 3.27392e-05
16 *722:9 *723:7 4.20253e-06
17 *722:9 *723:9 0.00976763
*RES
1 *788:analog_ctrl[41] *723:7 0.471567 
2 *723:7 *723:9 56.5473 
3 *723:9 *723:11 3.41 
4 *723:11 *723:13 118.725 
5 *723:13 *789:icont_lv[1] 28.9787 
*END

*D_NET *724 0.163966
*CONN
*I *789:dft_inc[0] I *D CF_ADC_SAR12
*I *788:analog_ctrl[42] O *D afe_wb
*CAP
1 *789:dft_inc[0] 0.000473012
2 *788:analog_ctrl[42] 0.000214864
3 *724:13 0.0295267
4 *724:11 0.0290537
5 *724:9 0.0122825
6 *724:7 0.0124974
7 *789:dft_inc[0] *789:dft_inc[2] 0.000138186
8 *789:dft_inc[0] *789:dft_outc[0] 3.20691e-05
9 *724:7 *725:7 3.27392e-05
10 *724:9 *725:7 4.20253e-06
11 *724:9 *725:9 0.0108653
12 *724:13 *739:15 1.49618e-05
13 *789:trimunit *789:dft_inc[0] 0.00168786
14 *789:trimunit *724:13 0.000166608
15 *789:icont_lv[0] *789:dft_inc[0] 0.000206547
16 *789:enable_hv *789:dft_inc[0] 1.65768e-05
17 *651:9 *789:dft_inc[0] 0.00239137
18 *696:13 *724:13 2.95768e-05
19 *697:13 *724:13 0.0545212
20 *722:9 *724:9 0
21 *723:7 *724:7 3.27392e-05
22 *723:9 *724:7 4.20253e-06
23 *723:9 *724:9 0.00977419
*RES
1 *788:analog_ctrl[42] *724:7 0.471567 
2 *724:7 *724:9 62.745 
3 *724:9 *724:11 3.41 
4 *724:11 *724:13 128.313 
5 *724:13 *789:dft_inc[0] 13.9751 
*END

*D_NET *725 0.161369
*CONN
*I *789:dft_inc[1] I *D CF_ADC_SAR12
*I *788:analog_ctrl[43] O *D afe_wb
*CAP
1 *789:dft_inc[1] 0.00057775
2 *788:analog_ctrl[43] 0.000214864
3 *725:13 0.0276386
4 *725:11 0.0270608
5 *725:9 0.0147926
6 *725:7 0.0150074
7 *789:dft_inc[1] *789:dft_inc[3] 0.000154542
8 *789:dft_inc[1] *789:dft_outc[2] 0.000227285
9 *789:dft_inc[1] *789:dft_outc[1] 1.37595e-05
10 *725:7 *726:11 3.27392e-05
11 *725:9 *726:11 0.00577885
12 *725:9 *727:9 0
13 *725:9 *739:17 0
14 *789:cap_trim[2] *789:dft_inc[1] 0.000182636
15 *789:cap_trim[1] *789:dft_inc[1] 1.47728e-05
16 *789:cap_trim[0] *789:dft_inc[1] 5.44456e-05
17 *789:icont_lv[1] *725:13 0
18 *19:20 *789:dft_inc[1] 0.000100157
19 *695:17 *725:13 0
20 *719:13 *725:13 0.0585305
21 *720:13 *725:13 8.49279e-05
22 *724:7 *725:7 3.27392e-05
23 *724:9 *725:7 4.20253e-06
24 *724:9 *725:9 0.0108653
*RES
1 *788:analog_ctrl[43] *725:7 0.471567 
2 *725:7 *725:9 64.907 
3 *725:9 *725:11 3.41 
4 *725:11 *725:13 125.224 
5 *725:13 *789:dft_inc[1] 12.3482 
*END

*D_NET *726 0.175908
*CONN
*I *789:dft_inc[2] I *D CF_ADC_SAR12
*I *788:analog_ctrl[44] O *D afe_wb
*CAP
1 *789:dft_inc[2] 0.00771528
2 *788:analog_ctrl[44] 0.0067889
3 *726:13 0.0308365
4 *726:11 0.0299101
5 *789:dft_inc[2] *789:dft_outc[0] 0.00580069
6 *726:11 *727:9 0.00581476
7 *789:trimunit *789:dft_inc[2] 0.000920844
8 *789:dft_inc[0] *789:dft_inc[2] 0.000138186
9 *789:icont_lv[0] *789:dft_inc[2] 0.00323881
10 *789:enable_hv *789:dft_inc[2] 0.000225069
11 *26:10 *726:13 0.00038072
12 *646:13 *789:dft_inc[2] 0.00390158
13 *647:9 *789:dft_inc[2] 0.00387497
14 *648:9 *789:dft_inc[2] 0.00835332
15 *649:9 *789:dft_inc[2] 1.31821e-05
16 *651:9 *789:dft_inc[2] 0.00442019
17 *715:13 *726:13 0.057763
18 *725:7 *726:11 3.27392e-05
19 *725:9 *726:11 0.00577885
*RES
1 *788:analog_ctrl[44] *726:11 37.6197 
2 *726:11 *726:13 734.161 
3 *726:13 *789:dft_inc[2] 40.667 
*END

*D_NET *727 0.14255
*CONN
*I *789:dft_inc[3] I *D CF_ADC_SAR12
*I *788:analog_ctrl[45] O *D afe_wb
*CAP
1 *789:dft_inc[3] 0.00608856
2 *788:analog_ctrl[45] 0.0111099
3 *727:13 0.0369319
4 *727:11 0.0308434
5 *727:9 0.0111099
6 *789:dft_inc[3] *789:dft_outc[2] 0.000110498
7 *789:dft_inc[3] *789:dft_outc[1] 0.00758844
8 *727:9 *728:11 0.0054018
9 *727:9 *729:9 0
10 *789:cap_trim[0] *789:dft_inc[3] 0
11 *789:dft_inc[1] *789:dft_inc[3] 0.000154542
12 *711:13 *727:13 0.0273967
13 *725:9 *727:9 0
14 *726:11 *727:9 0.00581476
*RES
1 *788:analog_ctrl[45] *727:9 46.9295 
2 *727:9 *727:11 3.41 
3 *727:11 *727:13 124.798 
4 *727:13 *789:dft_inc[3] 37.9388 
*END

*D_NET *728 0.140892
*CONN
*I *789:dft_outc[0] I *D CF_ADC_SAR12
*I *788:analog_ctrl[46] O *D afe_wb
*CAP
1 *789:dft_outc[0] 0.0137099
2 *788:analog_ctrl[46] 0.00630142
3 *728:13 0.0555504
4 *728:11 0.0481418
5 *789:dft_outc[0] *789:pd 0.00019892
6 *728:11 *729:7 3.69417e-05
7 *728:11 *729:9 0.00537142
8 *789:dft_inc[2] *789:dft_outc[0] 0.00580069
9 *789:dft_inc[0] *789:dft_outc[0] 3.20691e-05
10 *789:enable_hv *789:dft_outc[0] 0.00026153
11 *651:9 *789:dft_outc[0] 8.47345e-05
12 *727:9 *728:11 0.0054018
*RES
1 *788:analog_ctrl[46] *728:11 35.2055 
2 *728:11 *728:13 129.272 
3 *728:13 *789:dft_outc[0] 13.9168 
*END

*D_NET *729 0.144768
*CONN
*I *789:dft_outc[1] I *D CF_ADC_SAR12
*I *788:analog_ctrl[47] O *D afe_wb
*CAP
1 *789:dft_outc[1] 0.00324904
2 *788:analog_ctrl[47] 0.000214864
3 *729:13 0.03978
4 *729:11 0.036531
5 *729:9 0.0119238
6 *729:7 0.0121387
7 *789:dft_outc[1] *789:pd_ana 4.69965e-05
8 *789:dft_outc[1] *789:dft_outc[2] 0.000250095
9 *789:dft_outc[1] *787:61 0.000290133
10 *729:7 *730:7 3.27392e-05
11 *729:9 *730:7 4.20253e-06
12 *729:9 *730:9 0.00918008
13 *729:9 *731:9 0
14 *729:13 *730:13 0
15 *729:13 *787:15 0.0181158
16 *789:en_pump_lv *729:13 0
17 *789:dft_inc[3] *789:dft_outc[1] 0.00758844
18 *789:dft_inc[1] *789:dft_outc[1] 1.37595e-05
19 *727:9 *729:9 0
20 *728:11 *729:7 3.69417e-05
21 *728:11 *729:9 0.00537142
*RES
1 *788:analog_ctrl[47] *729:7 0.471567 
2 *729:7 *729:9 54.097 
3 *729:9 *729:11 3.41 
4 *729:11 *729:13 125.756 
5 *729:13 *789:dft_outc[1] 30.053 
*END

*D_NET *730 0.132283
*CONN
*I *789:dft_outc[2] I *D CF_ADC_SAR12
*I *788:analog_ctrl[48] O *D afe_wb
*CAP
1 *789:dft_outc[2] 0.00667056
2 *788:analog_ctrl[48] 0.000214864
3 *730:13 0.0456216
4 *730:11 0.038951
5 *730:9 0.0099082
6 *730:7 0.0101231
7 *789:dft_outc[2] *787:61 0.00087755
8 *730:7 *731:7 3.27392e-05
9 *730:9 *731:7 4.20253e-06
10 *730:9 *731:9 0.00918664
11 *789:en_pump_lv *789:dft_outc[2] 0.000119568
12 *789:dft_inc[3] *789:dft_outc[2] 0.000110498
13 *789:dft_inc[1] *789:dft_outc[2] 0.000227285
14 *789:dft_outc[1] *789:dft_outc[2] 0.000250095
15 *789:icont_lv[1] *789:dft_outc[2] 0
16 *19:20 *789:dft_outc[2] 0.000768394
17 *698:13 *730:13 0
18 *718:13 *789:dft_outc[2] 0
19 *729:7 *730:7 3.27392e-05
20 *729:9 *730:7 4.20253e-06
21 *729:9 *730:9 0.00918008
22 *729:13 *730:13 0
*RES
1 *788:analog_ctrl[48] *730:7 0.471567 
2 *730:7 *730:9 52.9439 
3 *730:9 *730:11 3.41 
4 *730:11 *730:13 120.643 
5 *730:13 *789:dft_outc[2] 37.5804 
*END

*D_NET *731 0.22716
*CONN
*I *789:sel_csel_dft[0] I *D CF_ADC_SAR12
*I *788:analog_ctrl[49] O *D afe_wb
*CAP
1 *789:sel_csel_dft[0] 0.00280224
2 *788:analog_ctrl[49] 0.000214864
3 *731:13 0.0167668
4 *731:11 0.0139645
5 *731:9 0.0244744
6 *731:7 0.0246893
7 *789:sel_csel_dft[0] *789:sel_csel_dft[2] 0
8 *789:sel_csel_dft[0] *789:sel_csel_dft[1] 0.000100819
9 *731:7 *733:7 3.27392e-05
10 *731:9 *733:7 4.20253e-06
11 *731:9 *733:9 0.0121689
12 *731:9 *734:9 0
13 *789:test_scanen *789:sel_csel_dft[0] 0
14 *789:iso_en *789:sel_csel_dft[0] 0
15 *789:sample_width[2] *789:sel_csel_dft[0] 0
16 *118:17 *731:13 0.0602695
17 *703:19 *789:sel_csel_dft[0] 0.00548085
18 *714:13 *731:13 0.056967
19 *729:9 *731:9 0
20 *730:7 *731:7 3.27392e-05
21 *730:9 *731:7 4.20253e-06
22 *730:9 *731:9 0.00918664
*RES
1 *788:analog_ctrl[49] *731:7 0.471567 
2 *731:7 *731:9 100.652 
3 *731:9 *731:11 3.41 
4 *731:11 *731:13 126.609 
5 *731:13 *789:sel_csel_dft[0] 26.8948 
*END

*D_NET *732 0.11174
*CONN
*I *792:e_n_boost I *D CF_BUF_HIZ
*I *788:analog_ctrl[4] O *D afe_wb
*CAP
1 *792:e_n_boost 0
2 *788:analog_ctrl[4] 0.000956584
3 *732:27 0.00896154
4 *732:13 0.0160605
5 *732:11 0.00805555
6 *732:11 *743:11 0.000183231
7 *732:13 *754:13 0.00358246
8 *732:13 *756:13 0.000319687
9 *732:27 *743:29 0.018765
10 *732:27 *763:21 0.000299339
11 *792:clk2_boost *732:27 0.000399659
12 *24:26 *732:27 0
13 *120:17 *732:13 0.00747341
14 *671:13 *732:13 0.0121859
15 *699:13 *732:13 0.0342288
16 *721:13 *732:11 0.000268636
*RES
1 *788:analog_ctrl[4] *732:11 5.94173 
2 *732:11 *732:13 427.554 
3 *732:13 *732:27 48.6935 
4 *732:27 *792:e_n_boost 4.5 
*END

*D_NET *733 0.186885
*CONN
*I *789:sel_csel_dft[1] I *D CF_ADC_SAR12
*I *788:analog_ctrl[50] O *D afe_wb
*CAP
1 *789:sel_csel_dft[1] 0.00218364
2 *788:analog_ctrl[50] 0.000214864
3 *733:19 0.0152457
4 *733:13 0.0404231
5 *733:11 0.027361
6 *733:9 0.0131785
7 *733:7 0.0133934
8 *789:sel_csel_dft[1] *789:sel_csel_dft[2] 9.72997e-05
9 *789:sel_csel_dft[1] *734:27 0.00180207
10 *789:sel_csel_dft[1] *735:21 0.00135884
11 *733:7 *734:7 3.27392e-05
12 *733:9 *734:7 4.20253e-06
13 *733:9 *734:9 0.0121755
14 *733:13 *776:37 0
15 *789:sel_csel_dft[0] *789:sel_csel_dft[1] 0.000100819
16 *789:iso_en *789:sel_csel_dft[1] 6.63171e-06
17 *528:19 *733:13 0.0444012
18 *694:29 *733:13 1.46723e-05
19 *694:43 *733:13 0.00268472
20 *731:7 *733:7 3.27392e-05
21 *731:9 *733:7 4.20253e-06
22 *731:9 *733:9 0.0121689
*RES
1 *788:analog_ctrl[50] *733:7 0.471567 
2 *733:7 *733:9 70.2399 
3 *733:9 *733:11 3.41 
4 *733:11 *733:13 119.364 
5 *733:13 *733:19 46.6478 
6 *733:19 *789:sel_csel_dft[1] 17.9958 
*END

*D_NET *734 0.168796
*CONN
*I *789:sel_csel_dft[2] I *D CF_ADC_SAR12
*I *788:analog_ctrl[51] O *D afe_wb
*CAP
1 *789:sel_csel_dft[2] 8.81348e-05
2 *788:analog_ctrl[51] 0.000212658
3 *734:27 0.00856103
4 *734:13 0.0486808
5 *734:11 0.0402079
6 *734:9 0.0209603
7 *734:7 0.021173
8 *789:sel_csel_dft[2] *789:sel_csel_dft[3] 5.7506e-05
9 *734:7 *735:11 3.9716e-05
10 *734:9 *735:11 0.00046031
11 *734:9 *736:15 0
12 *734:27 *735:21 0.00179772
13 *789:sample_width[4] *734:27 0.012435
14 *789:sel_csel_dft[0] *789:sel_csel_dft[2] 0
15 *789:iso_en *734:27 9.97767e-06
16 *789:sel_csel_dft[1] *789:sel_csel_dft[2] 9.72997e-05
17 *789:sel_csel_dft[1] *734:27 0.00180207
18 *731:9 *734:9 0
19 *733:7 *734:7 3.27392e-05
20 *733:9 *734:7 4.20253e-06
21 *733:9 *734:9 0.0121755
*RES
1 *788:analog_ctrl[51] *734:7 0.471567 
2 *734:7 *734:9 78.8879 
3 *734:9 *734:11 3.41 
4 *734:11 *734:13 125.117 
5 *734:13 *734:27 48.8226 
6 *734:27 *789:sel_csel_dft[2] 2.94643 
*END

*D_NET *735 0.16587
*CONN
*I *789:sel_csel_dft[3] I *D CF_ADC_SAR12
*I *788:analog_ctrl[52] O *D afe_wb
*CAP
1 *789:sel_csel_dft[3] 0.000131216
2 *788:analog_ctrl[52] 0.000934421
3 *735:21 0.0344409
4 *735:19 0.0343097
5 *735:17 0.0368044
6 *735:15 0.0368044
7 *735:13 0.00334699
8 *735:11 0.00428141
9 *735:11 *736:15 0.000253196
10 *735:13 *759:13 0
11 *735:17 *743:11 0.000130286
12 *735:17 *776:11 0
13 *789:sel_csel_dft[2] *789:sel_csel_dft[3] 5.7506e-05
14 *789:iso_en *789:sel_csel_dft[3] 6.63171e-06
15 *789:sel_csel_dft[1] *735:21 0.00135884
16 *671:13 *735:13 0.00894275
17 *694:13 *735:13 0.00176916
18 *734:7 *735:11 3.9716e-05
19 *734:9 *735:11 0.00046031
20 *734:27 *735:21 0.00179772
*RES
1 *788:analog_ctrl[52] *735:11 6.23 
2 *735:11 *735:13 111.232 
3 *735:13 *735:15 3.41 
4 *735:15 *735:17 108.039 
5 *735:17 *735:19 3.41 
6 *735:19 *735:21 109.776 
7 *735:21 *789:sel_csel_dft[3] 9.24232 
*END

*D_NET *736 0.179154
*CONN
*I *790:vref[0] I *D CF_ADC_SAR12_sar_refs
*I *788:analog_ctrl[53] O *D afe_wb
*CAP
1 *790:vref[0] 0.008512
2 *788:analog_ctrl[53] 0.010781
3 *736:17 0.0756572
4 *736:15 0.0779263
5 *790:vref[0] *790:vref[4] 0.000108168
6 *790:vref[0] *790:vref[2] 0.00456901
7 *790:vref[0] *790:vref[1] 0.000141121
8 *790:vref[0] *737:13 0
9 *790:vref[0] *739:23 0
10 *736:15 *737:7 3.69417e-05
11 *736:15 *737:9 0.000484063
12 *736:15 *743:13 0.000156792
13 *736:15 *755:13 0.00035849
14 *736:15 *771:13 0
15 *120:17 *736:15 0
16 *710:13 *736:15 0.000169619
17 *734:9 *736:15 0
18 *735:11 *736:15 0.000253196
*RES
1 *788:analog_ctrl[53] *736:15 33.7808 
2 *736:15 *736:17 187.42 
3 *736:17 *790:vref[0] 35.4203 
*END

*D_NET *737 0.175324
*CONN
*I *790:vref[1] I *D CF_ADC_SAR12_sar_refs
*I *788:analog_ctrl[54] O *D afe_wb
*CAP
1 *790:vref[1] 0.000481417
2 *788:analog_ctrl[54] 0.000214864
3 *737:13 0.0111408
4 *737:11 0.0106594
5 *737:9 0.0603088
6 *737:7 0.0605237
7 *790:vref[1] *790:vref[4] 0.000282537
8 *737:7 *738:11 3.27392e-05
9 *737:9 *738:11 0.00632792
10 *737:9 *739:9 0
11 *737:13 *740:13 0.0246287
12 *790:vref[0] *790:vref[1] 0.000141121
13 *790:vref[0] *737:13 0
14 *661:5 *790:vref[1] 6.12937e-05
15 *736:15 *737:7 3.69417e-05
16 *736:15 *737:9 0.000484063
*RES
1 *788:analog_ctrl[54] *737:7 0.471567 
2 *737:7 *737:9 189.294 
3 *737:9 *737:11 3.41 
4 *737:11 *737:13 51.6091 
5 *737:13 *790:vref[1] 5.43962 
*END

*D_NET *738 0.179045
*CONN
*I *790:vref[2] I *D CF_ADC_SAR12_sar_refs
*I *788:analog_ctrl[55] O *D afe_wb
*CAP
1 *790:vref[2] 0.00430308
2 *788:analog_ctrl[55] 0.0082261
3 *738:17 0.0528345
4 *738:15 0.0573684
5 *738:11 0.0170631
6 *790:vref[2] *790:vref[3] 7.70527e-05
7 *790:vref[2] *739:23 0.00451706
8 *738:11 *739:7 3.58785e-05
9 *738:11 *739:9 0.00509478
10 *790:vref[0] *790:vref[2] 0.00456901
11 *105:13 *738:17 0
12 *694:17 *738:17 0.0185951
13 *737:7 *738:11 3.27392e-05
14 *737:9 *738:11 0.00632792
*RES
1 *788:analog_ctrl[55] *738:11 40.6826 
2 *738:11 *738:15 29.7707 
3 *738:15 *738:17 154.27 
4 *738:17 *790:vref[2] 32.8533 
*END

*D_NET *739 0.168503
*CONN
*I *790:vref[3] I *D CF_ADC_SAR12_sar_refs
*I *788:analog_ctrl[56] O *D afe_wb
*CAP
1 *790:vref[3] 0.000200964
2 *788:analog_ctrl[56] 0.000218108
3 *739:23 0.0129272
4 *739:17 0.0553371
5 *739:15 0.0452265
6 *739:9 0.0191784
7 *739:7 0.0167809
8 *739:7 *740:7 3.1676e-05
9 *739:9 *740:7 4.20253e-06
10 *739:9 *740:9 0.00885833
11 *790:vref[2] *790:vref[3] 7.70527e-05
12 *790:vref[2] *739:23 0.00451706
13 *790:vref[0] *739:23 0
14 *720:9 *739:17 0
15 *724:13 *739:15 1.49618e-05
16 *725:9 *739:17 0
17 *737:9 *739:9 0
18 *738:11 *739:7 3.58785e-05
19 *738:11 *739:9 0.00509478
*RES
1 *788:analog_ctrl[56] *739:7 0.471567 
2 *739:7 *739:9 63.3215 
3 *739:9 *739:15 13.0459 
4 *739:15 *739:17 128.182 
5 *739:17 *739:23 49.5789 
6 *739:23 *790:vref[3] 3.8706 
*END

*D_NET *740 0.187687
*CONN
*I *790:vref[4] I *D CF_ADC_SAR12_sar_refs
*I *788:analog_ctrl[57] O *D afe_wb
*CAP
1 *790:vref[4] 0.000997102
2 *788:analog_ctrl[57] 0.000218108
3 *740:13 0.0119904
4 *740:11 0.0109933
5 *740:9 0.0534892
6 *740:7 0.0537073
7 *740:7 *741:7 3.1676e-05
8 *740:9 *741:7 4.20253e-06
9 *740:9 *741:9 0.0223424
10 *790:vref[1] *790:vref[4] 0.000282537
11 *790:vref[0] *790:vref[4] 0.000108168
12 *790:IREF_VREFBUF *790:vref[4] 0
13 *737:13 *740:13 0.0246287
14 *739:7 *740:7 3.1676e-05
15 *739:9 *740:7 4.20253e-06
16 *739:9 *740:9 0.00885833
*RES
1 *788:analog_ctrl[57] *740:7 0.471567 
2 *740:7 *740:9 189.15 
3 *740:9 *740:11 3.41 
4 *740:11 *740:13 52.6745 
5 *740:13 *790:vref[4] 6.76737 
*END

*D_NET *741 0.181947
*CONN
*I *790:PWR_CTRL_VREF[0] I *D CF_ADC_SAR12_sar_refs
*I *788:analog_ctrl[58] O *D afe_wb
*CAP
1 *790:PWR_CTRL_VREF[0] 0.000497893
2 *788:analog_ctrl[58] 0.000217309
3 *741:13 0.013448
4 *741:11 0.0129501
5 *741:9 0.0358912
6 *741:7 0.0361085
7 *790:PWR_CTRL_VREF[0] *790:PWR_CTRL_VREF[1] 9.05444e-05
8 *790:PWR_CTRL_VREF[0] *742:23 0.00254255
9 *741:7 *742:7 3.27392e-05
10 *741:9 *742:7 4.20253e-06
11 *741:9 *742:9 0.021198
12 *741:9 *744:9 0
13 *790:PD_BUF_VREF *790:PWR_CTRL_VREF[0] 0.00251875
14 *675:13 *741:13 0.0340689
15 *740:7 *741:7 3.1676e-05
16 *740:9 *741:7 4.20253e-06
17 *740:9 *741:9 0.0223424
*RES
1 *788:analog_ctrl[58] *741:7 0.471567 
2 *741:7 *741:9 159.062 
3 *741:9 *741:11 3.41 
4 *741:11 *741:13 418.446 
5 *741:13 *790:PWR_CTRL_VREF[0] 12.1253 
*END

*D_NET *742 0.172823
*CONN
*I *790:PWR_CTRL_VREF[1] I *D CF_ADC_SAR12_sar_refs
*I *788:analog_ctrl[59] O *D afe_wb
*CAP
1 *790:PWR_CTRL_VREF[1] 1.74681e-05
2 *788:analog_ctrl[59] 0.000214864
3 *742:23 0.00976418
4 *742:13 0.0303351
5 *742:11 0.0205883
6 *742:9 0.0220429
7 *742:7 0.0222577
8 *790:PWR_CTRL_VREF[1] *790:EN_RESVDA 1.11811e-05
9 *742:7 *744:7 3.27392e-05
10 *742:9 *744:7 4.20253e-06
11 *742:9 *744:9 0.021198
12 *742:23 *790:EN_RESVDA 0.0202655
13 *790:PWR_CTRL_VREF[0] *790:PWR_CTRL_VREF[1] 9.05444e-05
14 *790:PWR_CTRL_VREF[0] *742:23 0.00254255
15 *790:PD_BUF_VREF *790:PWR_CTRL_VREF[1] 3.7271e-05
16 *790:PD_BUF_VREF *742:23 0.00218583
17 *694:33 *742:23 0
18 *741:7 *742:7 3.27392e-05
19 *741:9 *742:7 4.20253e-06
20 *741:9 *742:9 0.021198
*RES
1 *788:analog_ctrl[59] *742:7 0.471567 
2 *742:7 *742:9 121.155 
3 *742:9 *742:11 3.41 
4 *742:11 *742:13 421.482 
5 *742:13 *742:23 49.702 
6 *742:23 *790:PWR_CTRL_VREF[1] 0.883929 
*END

*D_NET *743 0.135774
*CONN
*I *792:e_na_boost I *D CF_BUF_HIZ
*I *788:analog_ctrl[5] O *D afe_wb
*CAP
1 *792:e_na_boost 3.78364e-05
2 *788:analog_ctrl[5] 0.00123721
3 *743:29 0.0049237
4 *743:13 0.0105347
5 *743:11 0.00688604
6 *792:e_na_boost *792:clk1_boostr 0.000105097
7 *743:11 *754:11 0.000414587
8 *743:13 *755:13 0
9 *743:13 *757:13 0.000544887
10 *792:tp *792:e_na_boost 7.94598e-05
11 *12:30 *792:e_na_boost 5.04251e-06
12 *24:26 *743:29 0
13 *665:13 *743:13 0.0341352
14 *710:13 *743:13 0.0345335
15 *710:29 *743:29 0.0231012
16 *721:13 *743:11 0
17 *732:11 *743:11 0.000183231
18 *732:27 *743:29 0.018765
19 *735:17 *743:11 0.000130286
20 *736:15 *743:13 0.000156792
*RES
1 *788:analog_ctrl[5] *743:11 6.91933 
2 *743:11 *743:13 431.196 
3 *743:13 *743:29 46.8806 
4 *743:29 *792:e_na_boost 6.07143 
*END

*D_NET *744 0.166496
*CONN
*I *790:muxsarref[0] I *D CF_ADC_SAR12_sar_refs
*I *788:analog_ctrl[60] O *D afe_wb
*CAP
1 *790:muxsarref[0] 0.000614127
2 *788:analog_ctrl[60] 0.000214864
3 *744:13 0.010764
4 *744:11 0.0101498
5 *744:9 0.0340155
6 *744:7 0.0342304
7 *790:muxsarref[0] *790:muxsarref[2] 9.549e-05
8 *790:muxsarref[0] *790:muxsarref[1] 0.00326448
9 *790:muxsarref[0] *746:17 0.00318948
10 *744:7 *745:7 3.27392e-05
11 *744:9 *745:7 4.20253e-06
12 *744:9 *745:9 0.0217577
13 *680:21 *744:13 0.0269283
14 *741:9 *744:9 0
15 *742:7 *744:7 3.27392e-05
16 *742:9 *744:7 4.20253e-06
17 *742:9 *744:9 0.021198
*RES
1 *788:analog_ctrl[60] *744:7 0.471567 
2 *744:7 *744:9 157.981 
3 *744:9 *744:11 3.41 
4 *744:11 *744:13 330.411 
5 *744:13 *790:muxsarref[0] 13.2063 
*END

*D_NET *745 0.155928
*CONN
*I *790:muxsarref[1] I *D CF_ADC_SAR12_sar_refs
*I *788:analog_ctrl[61] O *D afe_wb
*CAP
1 *790:muxsarref[1] 0.00996574
2 *788:analog_ctrl[61] 0.000214864
3 *745:13 0.0261819
4 *745:11 0.0162161
5 *745:9 0.0231329
6 *745:7 0.0233478
7 *790:muxsarref[1] *746:17 0.0111301
8 *745:7 *746:7 3.27392e-05
9 *745:9 *746:7 4.20253e-06
10 *745:9 *746:9 0.0206428
11 *745:9 *747:9 0
12 *790:muxsarref[0] *790:muxsarref[1] 0.00326448
13 *744:7 *745:7 3.27392e-05
14 *744:9 *745:7 4.20253e-06
15 *744:9 *745:9 0.0217577
*RES
1 *788:analog_ctrl[61] *745:7 0.471567 
2 *745:7 *745:9 124.398 
3 *745:9 *745:11 3.41 
4 *745:11 *745:13 332.232 
5 *745:13 *790:muxsarref[1] 46.7894 
*END

*D_NET *746 0.156476
*CONN
*I *790:muxsarref[2] I *D CF_ADC_SAR12_sar_refs
*I *788:analog_ctrl[62] O *D afe_wb
*CAP
1 *790:muxsarref[2] 5.69453e-05
2 *788:analog_ctrl[62] 0.000214856
3 *746:17 0.0123167
4 *746:13 0.0286687
5 *746:11 0.0164089
6 *746:9 0.0214103
7 *746:7 0.0216252
8 *746:7 *747:7 2.50797e-05
9 *746:7 *747:9 7.74311e-06
10 *746:9 *747:9 0.0206467
11 *790:muxsarref[1] *746:17 0.0111301
12 *790:muxsarref[0] *790:muxsarref[2] 9.549e-05
13 *790:muxsarref[0] *746:17 0.00318948
14 *790:enpdb_hv *746:17 0
15 *745:7 *746:7 3.27392e-05
16 *745:9 *746:7 4.20253e-06
17 *745:9 *746:9 0.0206428
*RES
1 *788:analog_ctrl[62] *746:7 0.471567 
2 *746:7 *746:9 117.912 
3 *746:9 *746:11 3.41 
4 *746:11 *746:13 335.875 
5 *746:13 *746:17 48.5707 
6 *746:17 *790:muxsarref[2] 4.98143 
*END

*D_NET *747 0.16999
*CONN
*I *790:EN_RESVDA I *D CF_ADC_SAR12_sar_refs
*I *788:analog_ctrl[63] O *D afe_wb
*CAP
1 *790:EN_RESVDA 0.00700392
2 *788:analog_ctrl[63] 0.000139941
3 *747:13 0.0281478
4 *747:11 0.0211439
5 *747:9 0.0342964
6 *747:7 0.0344363
7 *747:7 *748:11 1.94692e-05
8 *747:9 *748:11 0.00116561
9 *747:9 *749:11 0
10 *790:PWR_CTRL_VREF[1] *790:EN_RESVDA 1.11811e-05
11 *790:pd_vcmbuf *790:EN_RESVDA 0.0026385
12 *790:PD_BUF_VREF *790:EN_RESVDA 4.17366e-05
13 *694:33 *790:EN_RESVDA 0
14 *742:23 *790:EN_RESVDA 0.0202655
15 *745:9 *747:9 0
16 *746:7 *747:7 2.50797e-05
17 *746:7 *747:9 7.74311e-06
18 *746:9 *747:9 0.0206467
*RES
1 *788:analog_ctrl[63] *747:7 0.332133 
2 *747:7 *747:9 131.028 
3 *747:9 *747:11 3.41 
4 *747:11 *747:13 431.804 
5 *747:13 *790:EN_RESVDA 40.5623 
*END

*D_NET *748 0.118635
*CONN
*I *791:trimTC[0] I *D CF_BGR
*I *788:analog_ctrl[64] O *D afe_wb
*CAP
1 *791:trimTC[0] 0.00122792
2 *788:analog_ctrl[64] 0.00260749
3 *748:13 0.0526428
4 *748:11 0.0540224
5 *791:trimTC[0] *791:trimTC[6] 0.00271965
6 *791:trimTC[0] *791:trimTC[3] 0.000166241
7 *791:trimTC[0] *791:trimTC[2] 0
8 *791:trimTC[0] *791:trimTC[1] 0.00287895
9 *748:11 *749:11 0.0011844
10 *747:7 *748:11 1.94692e-05
11 *747:9 *748:11 0.00116561
*RES
1 *788:analog_ctrl[64] *748:11 12.6126 
2 *748:11 *748:13 1045.02 
3 *748:13 *791:trimTC[0] 18.3409 
*END

*D_NET *749 0.118161
*CONN
*I *791:trimTC[1] I *D CF_BGR
*I *788:analog_ctrl[65] O *D afe_wb
*CAP
1 *791:trimTC[1] 0.000886952
2 *788:analog_ctrl[65] 0.00302142
3 *749:13 0.0523883
4 *749:11 0.0545228
5 *791:trimTC[1] *791:trimTC[2] 0.00146566
6 *749:11 *750:11 0.00181257
7 *791:trimTC[0] *791:trimTC[1] 0.00287895
8 *747:9 *749:11 0
9 *748:11 *749:11 0.0011844
*RES
1 *788:analog_ctrl[65] *749:11 14.7746 
2 *749:11 *749:13 1046.84 
3 *749:13 *791:trimTC[1] 16.8715 
*END

*D_NET *750 0.115982
*CONN
*I *791:trimTC[2] I *D CF_BGR
*I *788:analog_ctrl[66] O *D afe_wb
*CAP
1 *791:trimTC[2] 0.000878752
2 *788:analog_ctrl[66] 0.00335895
3 *750:13 0.0524667
4 *750:11 0.0549469
5 *791:trimTC[2] *791:trimTC[3] 0.000174028
6 *791:trimTC[2] *752:13 0
7 *750:11 *751:11 0.000878788
8 *750:11 *752:11 0
9 *791:trimTC[0] *791:trimTC[2] 0
10 *791:trimTC[1] *791:trimTC[2] 0.00146566
11 *749:11 *750:11 0.00181257
*RES
1 *788:analog_ctrl[66] *750:11 15.8556 
2 *750:11 *750:13 1048.66 
3 *750:13 *791:trimTC[2] 15.6374 
*END

*D_NET *751 0.116568
*CONN
*I *791:trimTC[3] I *D CF_BGR
*I *788:analog_ctrl[67] O *D afe_wb
*CAP
1 *791:trimTC[3] 0.00160202
2 *788:analog_ctrl[67] 0.00161279
3 *751:13 0.0535252
4 *751:11 0.053536
5 *791:trimTC[3] *791:trimTC[6] 0.00159113
6 *791:trimTC[3] *791:trimTC[5] 0.00260267
7 *791:trimTC[3] *791:trimTC[4] 0
8 *791:trimTC[3] *752:13 0
9 *751:11 *752:11 0.000878788
10 *751:13 *766:13 0
11 *791:trimTC[2] *791:trimTC[3] 0.000174028
12 *791:trimTC[0] *791:trimTC[3] 0.000166241
13 *750:11 *751:11 0.000878788
*RES
1 *788:analog_ctrl[67] *751:11 9.3696 
2 *751:11 *751:13 1054.73 
3 *751:13 *791:trimTC[3] 18.4621 
*END

*D_NET *752 0.114928
*CONN
*I *791:trimTC[4] I *D CF_BGR
*I *788:analog_ctrl[68] O *D afe_wb
*CAP
1 *791:trimTC[4] 6.07629e-05
2 *788:analog_ctrl[68] 0.00429164
3 *752:13 0.0521532
4 *752:11 0.056384
5 *791:trimTC[4] *791:trimTC[5] 7.68229e-05
6 *752:11 *753:11 0.0010829
7 *752:13 *791:trimTC[6] 0
8 *791:trimTC[3] *791:trimTC[4] 0
9 *791:trimTC[3] *752:13 0
10 *791:trimTC[2] *752:13 0
11 *750:11 *752:11 0
12 *751:11 *752:11 0.000878788
*RES
1 *788:analog_ctrl[68] *752:11 17.5852 
2 *752:11 *752:13 1058.38 
3 *752:13 *791:trimTC[4] 1.6875 
*END

*D_NET *753 0.115946
*CONN
*I *791:trimTC[5] I *D CF_BGR
*I *788:analog_ctrl[69] O *D afe_wb
*CAP
1 *791:trimTC[5] 0.00157183
2 *788:analog_ctrl[69] 0.00206741
3 *753:13 0.0538018
4 *753:11 0.0542974
5 *791:trimTC[5] *791:trimTC[6] 0
6 *753:11 *755:11 0.000444932
7 *791:trimTC[4] *791:trimTC[5] 7.68229e-05
8 *791:trimTC[3] *791:trimTC[5] 0.00260267
9 *752:11 *753:11 0.0010829
*RES
1 *788:analog_ctrl[69] *753:11 10.4506 
2 *753:11 *753:13 1060.8 
3 *753:13 *791:trimTC[5] 15.1272 
*END

*D_NET *754 0.120644
*CONN
*I *792:clk1_boostr I *D CF_BUF_HIZ
*I *788:analog_ctrl[6] O *D afe_wb
*CAP
1 *792:clk1_boostr 0.000280704
2 *788:analog_ctrl[6] 0.00100526
3 *754:21 0.0140103
4 *754:19 0.0190011
5 *754:13 0.00605312
6 *754:11 0.00178686
7 *754:11 *776:11 0
8 *754:13 *756:13 0.00013458
9 *754:19 *761:19 2.24813e-05
10 *754:19 *762:15 0
11 *754:19 *763:19 0.0141088
12 *788:adc_data[10] *754:19 0.000166882
13 *788:adc_data[6] *754:19 2.61244e-05
14 *792:clk2_boost *792:clk1_boostr 0.000284119
15 *792:e_na_boost *792:clk1_boostr 0.000105097
16 *12:30 *792:clk1_boostr 3.24612e-05
17 *22:18 *792:clk1_boostr 0
18 *26:26 *792:clk1_boostr 1.08589e-05
19 *103:21 *754:19 0.00106267
20 *120:17 *754:13 0.000445026
21 *650:17 *754:19 0
22 *671:13 *754:13 0.000339083
23 *721:13 *754:13 0.00334113
24 *721:19 *754:19 0.0225663
25 *721:21 *754:21 0.0318634
26 *732:13 *754:13 0.00358246
27 *743:11 *754:11 0.000414587
*RES
1 *788:analog_ctrl[6] *754:11 6.0138 
2 *754:11 *754:13 49.3036 
3 *754:13 *754:19 42.3598 
4 *754:19 *754:21 66.6303 
5 *754:21 *792:clk1_boostr 17.3673 
*END

*D_NET *755 0.119224
*CONN
*I *791:trimTC[6] I *D CF_BGR
*I *788:analog_ctrl[70] O *D afe_wb
*CAP
1 *791:trimTC[6] 0.00249145
2 *788:analog_ctrl[70] 0.00128218
3 *755:13 0.0488641
4 *755:11 0.0476549
5 *755:11 *756:11 0.000371195
6 *755:11 *757:11 0
7 *755:13 *757:13 0
8 *791:trimTC[5] *791:trimTC[6] 0
9 *791:trimTC[3] *791:trimTC[6] 0.00159113
10 *791:trimTC[0] *791:trimTC[6] 0.00271965
11 *665:13 *755:13 0
12 *710:13 *755:13 0.0134456
13 *736:15 *755:13 0.00035849
14 *743:13 *755:13 0
15 *752:13 *791:trimTC[6] 0
16 *753:11 *755:11 0.000444932
*RES
1 *788:analog_ctrl[70] *755:11 7.2076 
2 *755:11 *755:13 1060.2 
3 *755:13 *791:trimTC[6] 21.3052 
*END

*D_NET *756 0.213735
*CONN
*I *791:trimCurr[0] I *D CF_BGR
*I *788:analog_ctrl[71] O *D afe_wb
*CAP
1 *791:trimCurr[0] 0.000760863
2 *788:analog_ctrl[71] 0.000878063
3 *756:21 0.00625339
4 *756:19 0.0111108
5 *756:13 0.0199775
6 *756:11 0.0152373
7 *791:trimCurr[0] *791:trimCurr[3] 1.79069e-05
8 *791:trimCurr[0] *791:trimCurr[2] 8.04257e-05
9 *791:trimCurr[0] *791:trimCurr[1] 0
10 *791:trimCurr[0] *758:31 0.0018857
11 *791:trimCurr[0] *759:21 0.00340158
12 *756:11 *757:11 0.000171136
13 *756:13 *758:13 0.0563138
14 *756:13 *760:13 2.2355e-05
15 *756:19 *757:19 0.015179
16 *756:19 *759:19 0.000176356
17 *756:19 *771:29 0.00120682
18 *756:19 *775:19 0
19 *756:19 *781:20 0.000220874
20 *756:19 *781:22 0.00512917
21 *756:21 *758:21 0.0143865
22 *756:21 *758:31 1.02504e-05
23 *756:21 *759:21 0.01439
24 *120:17 *756:13 0.00614342
25 *671:13 *756:13 0
26 *699:13 *756:13 0.0399562
27 *732:13 *756:13 0.000319687
28 *754:13 *756:13 0.00013458
29 *755:11 *756:11 0.000371195
*RES
1 *788:analog_ctrl[71] *756:11 5.7976 
2 *756:11 *756:13 708.054 
3 *756:13 *756:19 31.2255 
4 *756:19 *756:21 315.286 
5 *756:21 *791:trimCurr[0] 43.942 
*END

*D_NET *757 0.212638
*CONN
*I *791:trimCurr[1] I *D CF_BGR
*I *788:analog_ctrl[72] O *D afe_wb
*CAP
1 *791:trimCurr[1] 6.16734e-05
2 *788:analog_ctrl[72] 0.00120213
3 *757:21 0.00634542
4 *757:19 0.00911846
5 *757:13 0.0161731
6 *757:11 0.0145405
7 *791:trimCurr[1] *791:CurrAbsTrim[1] 8.20286e-05
8 *791:trimCurr[1] *791:CurrAbsTrim[2] 1.79069e-05
9 *791:trimCurr[1] *758:31 0
10 *757:11 *758:11 0.000393643
11 *757:11 *759:11 0
12 *757:13 *759:13 0.0576361
13 *757:19 *759:19 0.0157779
14 *757:19 *768:19 2.24813e-05
15 *757:19 *771:29 0.00243952
16 *757:21 *791:CurrAbsTrim[1] 0.000356208
17 *757:21 *791:CurrAbsTrim[2] 0.000681717
18 *757:21 *760:21 6.87834e-06
19 *757:21 *766:21 0.0159284
20 *757:21 *772:17 0.0160936
21 *791:trimCurr[0] *791:trimCurr[1] 0
22 *665:13 *757:13 0.0398653
23 *743:13 *757:13 0.000544887
24 *755:11 *757:11 0
25 *755:13 *757:13 0
26 *756:11 *757:11 0.000171136
27 *756:19 *757:19 0.015179
*RES
1 *788:analog_ctrl[72] *757:11 6.7752 
2 *757:11 *757:13 710.482 
3 *757:13 *757:19 31.73 
4 *757:19 *757:21 357.732 
5 *757:21 *791:trimCurr[1] 1.62054 
*END

*D_NET *758 0.217292
*CONN
*I *791:trimCurr[2] I *D CF_BGR
*I *788:analog_ctrl[73] O *D afe_wb
*CAP
1 *791:trimCurr[2] 1.07643e-05
2 *788:analog_ctrl[73] 0.000795292
3 *758:31 0.00101052
4 *758:21 0.00663535
5 *758:19 0.0110135
6 *758:13 0.0169467
7 *758:11 0.0123641
8 *791:trimCurr[2] *791:trimCurr[3] 8.20286e-05
9 *758:11 *759:11 0.000199107
10 *758:13 *760:13 0.0566989
11 *758:19 *759:19 2.72155e-05
12 *758:19 *760:19 0.0153014
13 *758:19 *766:19 1.75318e-05
14 *758:19 *771:29 0.00351858
15 *758:19 *772:13 0.00370474
16 *758:19 *784:19 0
17 *758:21 *759:21 0
18 *758:21 *760:21 0.0145219
19 *758:21 *772:17 1.53887e-05
20 *758:31 *791:trimCurr[4] 6.44256e-05
21 *758:31 *791:CurrAbsTrim[1] 0
22 *758:31 *760:21 0.00129399
23 *791:trimCurr[0] *791:trimCurr[2] 8.04257e-05
24 *791:trimCurr[0] *758:31 0.0018857
25 *791:trimCurr[1] *758:31 0
26 *671:13 *758:13 0
27 *756:13 *758:13 0.0563138
28 *756:21 *758:21 0.0143865
29 *756:21 *758:31 1.02504e-05
30 *757:11 *758:11 0.000393643
*RES
1 *788:analog_ctrl[73] *758:11 5.72553 
2 *758:11 *758:13 709.268 
3 *758:13 *758:19 31.0093 
4 *758:19 *758:21 318.929 
5 *758:21 *758:31 48.817 
6 *758:31 *791:trimCurr[2] 5.32143 
*END

*D_NET *759 0.187091
*CONN
*I *791:trimCurr[3] I *D CF_BGR
*I *788:analog_ctrl[74] O *D afe_wb
*CAP
1 *791:trimCurr[3] 3.51267e-05
2 *788:analog_ctrl[74] 0.00111999
3 *759:21 0.0118601
4 *759:19 0.0145879
5 *759:13 0.0253421
6 *759:11 0.0236991
7 *791:trimCurr[3] *791:trimCurr[4] 0.000112344
8 *791:trimCurr[3] *791:CurrAbsTrim[0] 0
9 *759:11 *760:11 0.000384178
10 *759:19 *760:19 8.02253e-05
11 *759:19 *766:19 0.000229136
12 *759:19 *768:19 0.0153479
13 *759:19 *771:29 0.00258505
14 *759:19 *775:19 0
15 *759:21 *762:25 0
16 *791:trimCurr[2] *791:trimCurr[3] 8.20286e-05
17 *791:trimCurr[0] *791:trimCurr[3] 1.79069e-05
18 *791:trimCurr[0] *759:21 0.00340158
19 *671:13 *759:13 0
20 *694:13 *759:13 0
21 *735:13 *759:13 0
22 *756:19 *759:19 0.000176356
23 *756:21 *759:21 0.01439
24 *757:11 *759:11 0
25 *757:13 *759:13 0.0576361
26 *757:19 *759:19 0.0157779
27 *758:11 *759:11 0.000199107
28 *758:19 *759:19 2.72155e-05
29 *758:21 *759:21 0
*RES
1 *788:analog_ctrl[74] *759:11 6.70313 
2 *759:11 *759:13 714.732 
3 *759:13 *759:19 32.3065 
4 *759:19 *759:21 358.339 
5 *759:21 *791:trimCurr[3] 1.61161 
*END

*D_NET *760 0.206088
*CONN
*I *791:trimCurr[4] I *D CF_BGR
*I *788:analog_ctrl[75] O *D afe_wb
*CAP
1 *791:trimCurr[4] 0.000245376
2 *788:analog_ctrl[75] 0.000817273
3 *760:21 0.00582224
4 *760:19 0.00798961
5 *760:13 0.0265954
6 *760:11 0.0249999
7 *791:trimCurr[4] *791:CurrAbsTrim[0] 0
8 *760:11 *761:11 6.09325e-05
9 *760:19 *766:19 0.0150746
10 *760:19 *771:29 0.00280656
11 *760:21 *791:CurrAbsTrim[1] 0.000156024
12 *760:21 *763:21 0.00403779
13 *760:21 *772:17 0.0289958
14 *791:trimCurr[3] *791:trimCurr[4] 0.000112344
15 *671:13 *760:13 0
16 *756:13 *760:13 2.2355e-05
17 *757:21 *760:21 6.87834e-06
18 *758:13 *760:13 0.0566989
19 *758:19 *760:19 0.0153014
20 *758:21 *760:21 0.0145219
21 *758:31 *791:trimCurr[4] 6.44256e-05
22 *758:31 *760:21 0.00129399
23 *759:11 *760:11 0.000384178
24 *759:19 *760:19 8.02253e-05
*RES
1 *788:analog_ctrl[75] *760:11 5.65347 
2 *760:11 *760:13 714.732 
3 *760:13 *760:19 30.7931 
4 *760:19 *760:21 360.009 
5 *760:21 *791:trimCurr[4] 13.683 
*END

*D_NET *761 0.173592
*CONN
*I *791:trimCurr[5] I *D CF_BGR
*I *788:analog_ctrl[76] O *D afe_wb
*CAP
1 *791:trimCurr[5] 0.00143263
2 *788:analog_ctrl[76] 0.000303676
3 *761:21 0.0402719
4 *761:19 0.0430672
5 *761:13 0.00763524
6 *761:11 0.00371096
7 *791:trimCurr[5] *791:CurrAbsTrim[0] 9.87456e-05
8 *791:trimCurr[5] *791:CurrAbsTrim[1] 6.04869e-05
9 *791:trimCurr[5] *791:CurrAbsTrim[2] 0
10 *791:trimCurr[5] *791:inl_ctrl[0] 0
11 *791:trimCurr[5] *791:inl_ctrl[5] 0.00056379
12 *791:trimCurr[5] *791:inl_ctrl[3] 0.00078949
13 *791:trimCurr[5] *762:25 0.000299321
14 *791:trimCurr[5] *770:17 0
15 *761:11 *762:7 3.4102e-05
16 *761:11 *763:11 0
17 *761:13 *762:9 1.37595e-05
18 *761:13 *763:13 0.0176703
19 *761:13 *764:13 0.0177235
20 *761:13 *778:9 0.000411372
21 *761:19 *762:15 0
22 *761:19 *763:19 0.0123557
23 *788:adc_data[10] *761:19 0.000166882
24 *8:14 *761:21 0.0264183
25 *103:21 *761:19 0.000481119
26 *754:19 *761:19 2.24813e-05
27 *760:11 *761:11 6.09325e-05
*RES
1 *788:analog_ctrl[76] *761:11 4.14007 
2 *761:11 *761:13 220.518 
3 *761:13 *761:19 26.2169 
4 *761:19 *761:21 149.726 
5 *761:21 *791:trimCurr[5] 16.4624 
*END

*D_NET *762 0.157736
*CONN
*I *791:CurrAbsTrim[0] I *D CF_BGR
*I *788:analog_ctrl[77] O *D afe_wb
*CAP
1 *791:CurrAbsTrim[0] 5.05575e-05
2 *788:analog_ctrl[77] 0.000185089
3 *762:25 0.0182352
4 *762:23 0.018224
5 *762:17 0.0304122
6 *762:15 0.0382336
7 *762:9 0.0115503
8 *762:7 0.00387465
9 *762:7 *763:11 3.43689e-05
10 *762:9 *763:13 0.000252821
11 *762:9 *764:13 0
12 *762:9 *769:13 0.0173766
13 *762:9 *772:9 0.0182489
14 *762:9 *781:10 0.000445026
15 *762:15 *763:19 0
16 *762:15 *778:15 0
17 *762:17 *763:21 0
18 *762:25 *770:17 0
19 *762:25 *771:31 0
20 *788:adc_data[10] *762:15 0.000166882
21 *791:trimCurr[5] *791:CurrAbsTrim[0] 9.87456e-05
22 *791:trimCurr[5] *762:25 0.000299321
23 *791:trimCurr[4] *791:CurrAbsTrim[0] 0
24 *791:trimCurr[3] *791:CurrAbsTrim[0] 0
25 *659:47 *762:17 0
26 *754:19 *762:15 0
27 *759:21 *762:25 0
28 *761:11 *762:7 3.4102e-05
29 *761:13 *762:9 1.37595e-05
30 *761:19 *762:15 0
*RES
1 *788:analog_ctrl[77] *762:7 3.78287 
2 *762:7 *762:9 227.464 
3 *762:9 *762:15 30.1806 
4 *762:15 *762:17 85.1671 
5 *762:17 *762:23 6.90303 
6 *762:23 *762:25 367.446 
7 *762:25 *791:CurrAbsTrim[0] 1.53125 
*END

*D_NET *763 0.190467
*CONN
*I *791:CurrAbsTrim[1] I *D CF_BGR
*I *788:analog_ctrl[78] O *D afe_wb
*CAP
1 *791:CurrAbsTrim[1] 0.000323688
2 *788:analog_ctrl[78] 0.000280839
3 *763:21 0.0374082
4 *763:19 0.0395592
5 *763:13 0.00600806
6 *763:11 0.0038142
7 *791:CurrAbsTrim[1] *791:CurrAbsTrim[2] 8.20286e-05
8 *791:CurrAbsTrim[1] *772:17 5.75086e-05
9 *763:11 *764:11 5.38825e-05
10 *763:13 *764:13 0.000217291
11 *763:13 *769:13 0.0175537
12 *763:13 *778:9 0.000445026
13 *763:21 *766:21 0.000216623
14 *763:21 *771:29 0
15 *763:21 *772:17 0.00561193
16 *763:21 *778:17 0.026013
17 *788:adc_data[10] *763:19 0.000166882
18 *791:trimCurr[5] *791:CurrAbsTrim[1] 6.04869e-05
19 *791:trimCurr[1] *791:CurrAbsTrim[1] 8.20286e-05
20 *103:21 *763:19 0.000584174
21 *656:26 *763:21 0.00264017
22 *659:47 *763:21 1.68489e-05
23 *732:27 *763:21 0.000299339
24 *754:19 *763:19 0.0141088
25 *757:21 *791:CurrAbsTrim[1] 0.000356208
26 *758:31 *791:CurrAbsTrim[1] 0
27 *760:21 *791:CurrAbsTrim[1] 0.000156024
28 *760:21 *763:21 0.00403779
29 *761:11 *763:11 0
30 *761:13 *763:13 0.0176703
31 *761:19 *763:19 0.0123557
32 *762:7 *763:11 3.43689e-05
33 *762:9 *763:13 0.000252821
34 *762:15 *763:19 0
35 *762:17 *763:21 0
*RES
1 *788:analog_ctrl[78] *763:11 4.068 
2 *763:11 *763:13 224.768 
3 *763:13 *763:19 28.8834 
4 *763:19 *763:21 149.62 
5 *763:21 *791:CurrAbsTrim[1] 23.0784 
*END

*D_NET *764 0.144721
*CONN
*I *791:CurrAbsTrim[2] I *D CF_BGR
*I *788:analog_ctrl[79] O *D afe_wb
*CAP
1 *791:CurrAbsTrim[2] 0.00797748
2 *788:analog_ctrl[79] 0.000305681
3 *764:13 0.0571456
4 *764:11 0.0494738
5 *791:CurrAbsTrim[2] *791:CurrAbsTrim[3] 0.000186278
6 *791:CurrAbsTrim[2] *791:inl_ctrl[4] 0
7 *791:CurrAbsTrim[2] *766:21 0.000628114
8 *764:11 *766:11 6.34397e-05
9 *764:13 *769:13 6.54459e-05
10 *764:13 *770:9 0
11 *764:13 *772:9 0
12 *764:13 *773:11 0
13 *764:13 *777:13 0
14 *764:13 *778:9 0.000672917
15 *764:13 *779:10 0.00377408
16 *764:13 *780:13 0
17 *764:13 *781:10 0.00565194
18 *791:trimCurr[5] *791:CurrAbsTrim[2] 0
19 *791:trimCurr[1] *791:CurrAbsTrim[2] 1.79069e-05
20 *791:CurrAbsTrim[1] *791:CurrAbsTrim[2] 8.20286e-05
21 *757:21 *791:CurrAbsTrim[2] 0.000681717
22 *761:13 *764:13 0.0177235
23 *762:9 *764:13 0
24 *763:11 *764:11 5.38825e-05
25 *763:13 *764:13 0.000217291
*RES
1 *788:analog_ctrl[79] *764:11 4.21213 
2 *764:11 *764:13 1075.98 
3 *764:13 *791:CurrAbsTrim[2] 39.1216 
*END

*D_NET *766 0.195628
*CONN
*I *791:CurrAbsTrim[3] I *D CF_BGR
*I *788:analog_ctrl[80] O *D afe_wb
*CAP
1 *791:CurrAbsTrim[3] 6.53844e-05
2 *788:analog_ctrl[80] 0.0020333
3 *766:21 0.0120231
4 *766:19 0.0151739
5 *766:13 0.0260247
6 *766:11 0.0248419
7 *791:CurrAbsTrim[3] *791:CurrAbsTrim[4] 0
8 *791:CurrAbsTrim[3] *777:27 0
9 *766:11 *767:11 0.000205877
10 *766:11 *768:11 0
11 *766:13 *768:13 0.0591542
12 *766:19 *768:19 0.0167008
13 *766:19 *771:29 0.00329162
14 *766:21 *767:21 0
15 *766:21 *768:21 0
16 *766:21 *772:17 0
17 *766:21 *777:27 0
18 *766:21 *778:17 0.00376956
19 *791:CurrAbsTrim[2] *791:CurrAbsTrim[3] 0.000186278
20 *791:CurrAbsTrim[2] *766:21 0.000628114
21 *751:13 *766:13 0
22 *757:21 *766:21 0.0159284
23 *758:19 *766:19 1.75318e-05
24 *759:19 *766:19 0.000229136
25 *760:19 *766:19 0.0150746
26 *763:21 *766:21 0.000216623
27 *764:11 *766:11 6.34397e-05
*RES
1 *788:analog_ctrl[80] *766:11 8.9372 
2 *766:11 *766:13 728.089 
3 *766:13 *766:19 33.7479 
4 *766:19 *766:21 358.946 
5 *766:21 *791:CurrAbsTrim[3] 2.05804 
*END

*D_NET *767 0.208881
*CONN
*I *791:CurrAbsTrim[4] I *D CF_BGR
*I *788:analog_ctrl[81] O *D afe_wb
*CAP
1 *791:CurrAbsTrim[4] 7.70099e-05
2 *788:analog_ctrl[81] 0.000365297
3 *767:21 0.00658246
4 *767:19 0.014355
5 *767:13 0.0210449
6 *767:11 0.0135606
7 *791:CurrAbsTrim[4] *791:CurrAbsTrim[5] 7.24804e-05
8 *791:CurrAbsTrim[4] *768:21 1.99674e-05
9 *791:CurrAbsTrim[4] *777:27 1.71663e-05
10 *767:11 *768:11 0.000118606
11 *767:13 *777:13 0.0697427
12 *767:13 *782:13 0.0622305
13 *767:21 *768:21 0.0187515
14 *767:21 *777:27 0.00173704
15 *791:CurrAbsTrim[3] *791:CurrAbsTrim[4] 0
16 *4:18 *767:19 0
17 *766:11 *767:11 0.000205877
18 *766:21 *767:21 0
*RES
1 *788:analog_ctrl[81] *767:11 4.64453 
2 *767:11 *767:13 859.232 
3 *767:13 *767:19 28.8473 
4 *767:19 *767:21 230.232 
5 *767:21 *791:CurrAbsTrim[4] 1.70982 
*END

*D_NET *768 0.197816
*CONN
*I *791:CurrAbsTrim[5] I *D CF_BGR
*I *788:analog_ctrl[82] O *D afe_wb
*CAP
1 *791:CurrAbsTrim[5] 4.28482e-05
2 *788:analog_ctrl[82] 0.00202557
3 *768:21 0.0134161
4 *768:19 0.016317
5 *768:13 0.026036
6 *768:11 0.0251178
7 *791:CurrAbsTrim[5] *791:mux2sel 2.98837e-05
8 *768:11 *769:11 5.46487e-05
9 *768:19 *771:29 0.00295731
10 *768:21 *791:mux2sel 0.00163071
11 *768:21 *781:26 0
12 *768:21 *782:21 0
13 *791:CurrAbsTrim[4] *791:CurrAbsTrim[5] 7.24804e-05
14 *791:CurrAbsTrim[4] *768:21 1.99674e-05
15 *757:19 *768:19 2.24813e-05
16 *759:19 *768:19 0.0153479
17 *766:11 *768:11 0
18 *766:13 *768:13 0.0591542
19 *766:19 *768:19 0.0167008
20 *766:21 *768:21 0
21 *767:11 *768:11 0.000118606
22 *767:21 *768:21 0.0187515
*RES
1 *788:analog_ctrl[82] *768:11 8.86513 
2 *768:11 *768:13 733.554 
3 *768:13 *768:19 33.0272 
4 *768:19 *768:21 359.554 
5 *768:21 *791:CurrAbsTrim[5] 1.18304 
*END

*D_NET *769 0.155043
*CONN
*I *791:inl_ctrl[0] I *D CF_BGR
*I *788:analog_ctrl[83] O *D afe_wb
*CAP
1 *791:inl_ctrl[0] 0.00439373
2 *788:analog_ctrl[83] 0.000241325
3 *769:25 0.0466923
4 *769:23 0.0429021
5 *769:13 0.00448686
6 *769:11 0.00412459
7 *791:inl_ctrl[0] *791:mux1sel[1] 0.000270321
8 *791:inl_ctrl[0] *791:inl_ctrl[1] 6.49443e-05
9 *791:inl_ctrl[0] *791:inl_ctrl[5] 0.0119628
10 *791:inl_ctrl[0] *770:17 5.87659e-05
11 *769:11 *770:7 2.21181e-05
12 *769:13 *772:9 0.00060485
13 *769:13 *777:13 0
14 *769:13 *778:9 0.000397833
15 *788:adc_eof *769:23 0.000109693
16 *791:trimCurr[5] *791:inl_ctrl[0] 0
17 *646:21 *769:23 0.00129445
18 *647:17 *769:23 0.00236565
19 *762:9 *769:13 0.0173766
20 *763:13 *769:13 0.0175537
21 *764:13 *769:13 6.54459e-05
22 *768:11 *769:11 5.46487e-05
*RES
1 *788:analog_ctrl[83] *769:11 3.99593 
2 *769:11 *769:13 230.839 
3 *769:13 *769:23 10.815 
4 *769:23 *769:25 862.875 
5 *769:25 *791:inl_ctrl[0] 29.4005 
*END

*D_NET *770 0.212379
*CONN
*I *791:inl_ctrl[1] I *D CF_BGR
*I *788:analog_ctrl[84] O *D afe_wb
*CAP
1 *791:inl_ctrl[1] 4.70835e-05
2 *788:analog_ctrl[84] 0.000121881
3 *770:17 0.0105838
4 *770:15 0.0192372
5 *770:9 0.0210362
6 *770:7 0.0124575
7 *791:inl_ctrl[1] *791:inl_ctrl[2] 7.07418e-05
8 *791:inl_ctrl[1] *771:31 9.08916e-06
9 *770:7 *771:11 2.01644e-05
10 *770:9 *772:9 0.0595568
11 *770:9 *779:10 0.0113236
12 *770:9 *780:13 0.0652737
13 *770:17 *771:31 0.0124958
14 *791:trimCurr[5] *770:17 0
15 *791:inl_ctrl[0] *791:inl_ctrl[1] 6.49443e-05
16 *791:inl_ctrl[0] *770:17 5.87659e-05
17 *762:25 *770:17 0
18 *764:13 *770:9 0
19 *769:11 *770:7 2.21181e-05
*RES
1 *788:analog_ctrl[84] *770:7 3.63873 
2 *770:7 *770:9 805.464 
3 *770:9 *770:15 30.4328 
4 *770:15 *770:17 291.554 
5 *770:17 *791:inl_ctrl[1] 1.76339 
*END

*D_NET *771 0.191709
*CONN
*I *791:inl_ctrl[2] I *D CF_BGR
*I *788:analog_ctrl[85] O *D afe_wb
*CAP
1 *791:inl_ctrl[2] 3.29191e-05
2 *788:analog_ctrl[85] 0.00168461
3 *771:31 0.0133919
4 *771:29 0.0262761
5 *771:13 0.0640916
6 *771:11 0.0528591
7 *791:inl_ctrl[2] *791:inl_ctrl[3] 8.15267e-05
8 *771:11 *772:7 3.45822e-05
9 *771:29 *775:19 7.64072e-05
10 *771:29 *784:19 0.00131592
11 *771:31 *791:inl_ctrl[3] 0.000176819
12 *771:31 *791:inl_ctrl[4] 0.000285829
13 *771:31 *775:21 0
14 *791:inl_ctrl[1] *791:inl_ctrl[2] 7.07418e-05
15 *791:inl_ctrl[1] *771:31 9.08916e-06
16 *736:15 *771:13 0
17 *756:19 *771:29 0.00120682
18 *757:19 *771:29 0.00243952
19 *758:19 *771:29 0.00351858
20 *759:19 *771:29 0.00258505
21 *760:19 *771:29 0.00280656
22 *762:25 *771:31 0
23 *763:21 *771:29 0
24 *766:19 *771:29 0.00329162
25 *768:19 *771:29 0.00295731
26 *770:7 *771:11 2.01644e-05
27 *770:17 *771:31 0.0124958
*RES
1 *788:analog_ctrl[85] *771:11 7.82017 
2 *771:11 *771:13 129.911 
3 *771:13 *771:29 12.3031 
4 *771:29 *771:31 356.518 
5 *771:31 *791:inl_ctrl[2] 1.50446 
*END

*D_NET *772 0.208048
*CONN
*I *791:inl_ctrl[3] I *D CF_BGR
*I *788:analog_ctrl[86] O *D afe_wb
*CAP
1 *791:inl_ctrl[3] 0.000734164
2 *788:analog_ctrl[86] 0.000142296
3 *772:17 0.00625507
4 *772:15 0.00552091
5 *772:13 0.00663664
6 *772:11 0.00663664
7 *772:9 0.0192174
8 *772:7 0.0193597
9 *791:inl_ctrl[3] *791:inl_ctrl[5] 4.87117e-05
10 *791:inl_ctrl[3] *791:inl_ctrl[4] 0.000422557
11 *772:7 *773:9 1.88258e-05
12 *772:9 *777:13 0
13 *772:9 *780:11 0.000320364
14 *772:9 *780:13 3.20706e-05
15 *772:9 *781:10 0.00873042
16 *791:trimCurr[5] *791:inl_ctrl[3] 0.00078949
17 *791:CurrAbsTrim[1] *772:17 5.75086e-05
18 *791:inl_ctrl[2] *791:inl_ctrl[3] 8.15267e-05
19 *757:21 *772:17 0.0160936
20 *758:19 *772:13 0.00370474
21 *758:21 *772:17 1.53887e-05
22 *760:21 *772:17 0.0289958
23 *762:9 *772:9 0.0182489
24 *763:21 *772:17 0.00561193
25 *764:13 *772:9 0
26 *766:21 *772:17 0
27 *769:13 *772:9 0.00060485
28 *770:9 *772:9 0.0595568
29 *771:11 *772:7 3.45822e-05
30 *771:31 *791:inl_ctrl[3] 0.000176819
*RES
1 *788:analog_ctrl[86] *772:7 3.7108 
2 *772:7 *772:9 739.741 
3 *772:9 *772:11 4.5 
4 *772:11 *772:13 125.804 
5 *772:13 *772:15 4.5 
6 *772:15 *772:17 357.884 
7 *772:17 *791:inl_ctrl[3] 14.6961 
*END

*D_NET *773 0.202605
*CONN
*I *791:inl_ctrl[4] I *D CF_BGR
*I *788:analog_ctrl[87] O *D afe_wb
*CAP
1 *791:inl_ctrl[4] 0.00858291
2 *788:analog_ctrl[87] 0.000111453
3 *773:11 0.0437462
4 *773:9 0.0352747
5 *791:inl_ctrl[4] *791:mux2sel 0
6 *791:inl_ctrl[4] *791:inl_ctrl[5] 0.000183918
7 *791:inl_ctrl[4] *775:21 0.000419297
8 *773:9 *775:11 0
9 *773:11 *779:10 0.0284013
10 *773:11 *780:11 0.000265338
11 *773:11 *780:13 0.0848843
12 *773:11 *781:20 8.22793e-06
13 *791:CurrAbsTrim[2] *791:inl_ctrl[4] 0
14 *791:inl_ctrl[3] *791:inl_ctrl[4] 0.000422557
15 *12:14 *791:inl_ctrl[4] 0
16 *764:13 *773:11 0
17 *771:31 *791:inl_ctrl[4] 0.000285829
18 *772:7 *773:9 1.88258e-05
*RES
1 *788:analog_ctrl[87] *773:9 4.10238 
2 *773:9 *773:11 1089.61 
3 *773:11 *791:inl_ctrl[4] 46.7874 
*END

*D_NET *774 0.154442
*CONN
*I *791:inl_ctrl[5] I *D CF_BGR
*I *788:analog_ctrl[88] O *D afe_wb
*CAP
1 *791:inl_ctrl[5] 0.00486784
2 *788:analog_ctrl[88] 0.0025509
3 *774:14 0.066525
4 *774:12 0.0642081
5 *791:inl_ctrl[5] *791:inl_ctrl[6] 8.3499e-05
6 *791:inl_ctrl[5] *775:21 5.64115e-05
7 *774:12 *779:10 0.00339125
8 *788:adc_eof *774:14 0
9 *791:trimCurr[5] *791:inl_ctrl[5] 0.00056379
10 *791:inl_ctrl[0] *791:inl_ctrl[5] 0.0119628
11 *791:inl_ctrl[3] *791:inl_ctrl[5] 4.87117e-05
12 *791:inl_ctrl[4] *791:inl_ctrl[5] 0.000183918
*RES
1 *788:analog_ctrl[88] *774:12 12.3463 
2 *774:12 *774:14 187.12 
3 *774:14 *791:inl_ctrl[5] 31.9143 
*END

*D_NET *775 0.162278
*CONN
*I *791:inl_ctrl[6] I *D CF_BGR
*I *788:analog_ctrl[89] O *D afe_wb
*CAP
1 *791:inl_ctrl[6] 5.19771e-05
2 *788:analog_ctrl[89] 0.000435471
3 *775:21 0.0170683
4 *775:19 0.0258267
5 *775:13 0.0327384
6 *775:11 0.0243635
7 *775:11 *777:11 4.71204e-06
8 *775:13 *782:13 0.000517326
9 *775:13 *784:13 0.0603213
10 *775:19 *781:20 3.10039e-05
11 *791:inl_ctrl[5] *791:inl_ctrl[6] 8.3499e-05
12 *791:inl_ctrl[5] *775:21 5.64115e-05
13 *791:inl_ctrl[4] *775:21 0.000419297
14 *682:15 *775:11 0.000283367
15 *756:19 *775:19 0
16 *759:19 *775:19 0
17 *771:29 *775:19 7.64072e-05
18 *771:31 *775:21 0
19 *773:9 *775:11 0
*RES
1 *788:analog_ctrl[89] *775:11 4.86073 
2 *775:11 *775:13 755.411 
3 *775:13 *775:19 32.0903 
4 *775:19 *775:21 353.482 
5 *775:21 *791:inl_ctrl[6] 1.58482 
*END

*D_NET *776 0.220074
*CONN
*I *790:pd I *D CF_ADC_SAR12_sar_refs
*I *789:pd I *D CF_ADC_SAR12
*I *788:analog_ctrl[8] O *D afe_wb
*CAP
1 *790:pd 3.96456e-05
2 *789:pd 0.000317921
3 *788:analog_ctrl[8] 0.0110213
4 *776:51 0.024572
5 *776:37 0.0189134
6 *776:35 0.0185955
7 *776:33 0.0253012
8 *776:23 0.00964865
9 *776:15 0.0212253
10 *776:11 0.0233668
11 *790:pd *790:pd_ana 8.23336e-05
12 *776:11 *787:7 3.69417e-05
13 *776:11 *787:9 0.00683679
14 *776:23 *787:21 0.000190371
15 *776:33 *790:pd_ana 0.000756236
16 *776:51 *790:pd_ana 0.00561956
17 *789:refclk *789:pd 0.0010857
18 *789:dft_outc[0] *789:pd 0.00019892
19 *789:enable_hv *789:pd 0.00167581
20 *790:hiz *790:pd 8.40743e-05
21 *790:sw_start *776:51 0
22 *20:52 *776:37 0
23 *647:9 *789:pd 0.000355548
24 *648:9 *789:pd 0.000646951
25 *651:9 *789:pd 8.15978e-05
26 *692:25 *776:51 0.00476099
27 *692:44 *776:51 0.0292674
28 *694:29 *776:37 8.29047e-05
29 *694:43 *776:37 0.0153097
30 *733:13 *776:37 0
31 *735:17 *776:11 0
32 *754:11 *776:11 0
*RES
1 *788:analog_ctrl[8] *776:11 43.8535 
2 *776:11 *776:15 41.7025 
3 *776:15 *776:23 38.8088 
4 *776:23 *776:33 24.002 
5 *776:33 *776:35 3.41 
6 *776:35 *776:37 74.4073 
7 *776:37 *789:pd 10.0833 
8 *776:33 *776:51 93.6976 
9 *776:51 *790:pd 5.25821 
*END

*D_NET *777 0.166549
*CONN
*I *791:mux1sel[0] I *D CF_BGR
*I *788:analog_ctrl[90] O *D afe_wb
*CAP
1 *791:mux1sel[0] 1.27078e-05
2 *788:analog_ctrl[90] 0.000297061
3 *777:27 0.00153698
4 *777:19 0.00902817
5 *777:13 0.0447225
6 *777:11 0.0375157
7 *791:mux1sel[0] *791:mux2sel 8.04257e-05
8 *791:mux1sel[0] *791:mux1sel[1] 8.04257e-05
9 *777:11 *778:7 4.37594e-05
10 *777:13 *782:13 0.000974873
11 *777:27 *778:17 0.00020996
12 *791:CurrAbsTrim[3] *777:27 0
13 *791:CurrAbsTrim[4] *777:27 1.71663e-05
14 *674:13 *777:11 0
15 *682:15 *777:11 0.000544347
16 *764:13 *777:13 0
17 *766:21 *777:27 0
18 *767:13 *777:13 0.0697427
19 *767:21 *777:27 0.00173704
20 *769:13 *777:13 0
21 *772:9 *777:13 0
22 *775:11 *777:11 4.71204e-06
*RES
1 *788:analog_ctrl[90] *777:11 4.57247 
2 *777:11 *777:13 1072.34 
3 *777:13 *777:19 28.9194 
4 *777:19 *777:27 46.0179 
5 *777:27 *791:mux1sel[0] 5.32143 
*END

*D_NET *778 0.186607
*CONN
*I *791:mux1sel[1] I *D CF_BGR
*I *788:analog_ctrl[91] O *D afe_wb
*CAP
1 *791:mux1sel[1] 0.000246429
2 *788:analog_ctrl[91] 0.000170798
3 *778:17 0.0396391
4 *778:15 0.0466805
5 *778:9 0.0263653
6 *778:7 0.0192483
7 *791:mux1sel[1] *791:mux2sel 2.28527e-05
8 *791:mux1sel[1] *791:dft_sel 0.000111261
9 *791:mux1sel[1] *791:pd_ibg 6.95138e-06
10 *778:7 *780:11 0
11 *778:9 *781:10 0.021796
12 *791:mux1sel[0] *791:mux1sel[1] 8.04257e-05
13 *791:inl_ctrl[0] *791:mux1sel[1] 0.000270321
14 *674:13 *778:7 5.1304e-06
15 *761:13 *778:9 0.000411372
16 *762:15 *778:15 0
17 *763:13 *778:9 0.000445026
18 *763:21 *778:17 0.026013
19 *764:13 *778:9 0.000672917
20 *766:21 *778:17 0.00376956
21 *769:13 *778:9 0.000397833
22 *777:11 *778:7 4.37594e-05
23 *777:27 *778:17 0.00020996
*RES
1 *788:analog_ctrl[91] *778:7 3.8189 
2 *778:7 *778:9 46.9749 
3 *778:9 *778:15 28.3429 
4 *778:15 *778:17 148.554 
5 *778:17 *791:mux1sel[1] 8.77229 
*END

*D_NET *779 0.254537
*CONN
*I *791:mux2sel I *D CF_BGR
*I *788:analog_ctrl[92] O *D afe_wb
*CAP
1 *791:mux2sel 0.00541299
2 *788:analog_ctrl[92] 0.000125372
3 *779:10 0.0602233
4 *779:8 0.0549357
5 *791:mux2sel *782:21 0.000536277
6 *779:8 *781:8 0
7 *779:8 *781:10 4.07606e-05
8 *779:10 *780:11 0.000123605
9 *779:10 *780:13 0.0137697
10 *779:10 *781:10 0.0628265
11 *791:CurrAbsTrim[5] *791:mux2sel 2.98837e-05
12 *791:mux1sel[0] *791:mux2sel 8.04257e-05
13 *791:mux1sel[1] *791:mux2sel 2.28527e-05
14 *791:inl_ctrl[4] *791:mux2sel 0
15 *12:14 *791:mux2sel 0.00788884
16 *764:13 *779:10 0.00377408
17 *768:21 *791:mux2sel 0.00163071
18 *770:9 *779:10 0.0113236
19 *773:11 *779:10 0.0284013
20 *774:12 *779:10 0.00339125
*RES
1 *788:analog_ctrl[92] *779:8 3.75467 
2 *779:8 *779:10 192.34 
3 *779:10 *791:mux2sel 48.8285 
*END

*D_NET *780 0.225815
*CONN
*I *791:dft_sel I *D CF_BGR
*I *788:analog_ctrl[93] O *D afe_wb
*CAP
1 *791:dft_sel 0.000116474
2 *788:analog_ctrl[93] 0.000916744
3 *780:21 0.00186746
4 *780:19 0.00865068
5 *780:13 0.0253703
6 *780:11 0.0193874
7 *791:dft_sel *791:pd_ibg 0.000108051
8 *780:11 *782:11 0
9 *780:21 *791:pd 9.82825e-06
10 *780:21 *781:26 0.00413555
11 *791:mux1sel[1] *791:dft_sel 0.000111261
12 *674:11 *780:11 0.000128234
13 *682:11 *780:11 0.000343635
14 *764:13 *780:13 0
15 *770:9 *780:13 0.0652737
16 *772:9 *780:11 0.000320364
17 *772:9 *780:13 3.20706e-05
18 *773:11 *780:11 0.000265338
19 *773:11 *780:13 0.0848843
20 *778:7 *780:11 0
21 *779:10 *780:11 0.000123605
22 *779:10 *780:13 0.0137697
*RES
1 *788:analog_ctrl[93] *780:11 25.2102 
2 *780:11 *780:13 1046.23 
3 *780:13 *780:19 27.406 
4 *780:19 *780:21 51.8839 
5 *780:21 *791:dft_sel 11.4554 
*END

*D_NET *781 0.227874
*CONN
*I *791:pd I *D CF_BGR
*I *788:analog_ctrl[94] O *D afe_wb
*CAP
1 *791:pd 4.74169e-05
2 *788:analog_ctrl[94] 0.000179263
3 *781:26 0.0115256
4 *781:24 0.0114782
5 *781:22 0.00611318
6 *781:20 0.0062502
7 *781:10 0.0286335
8 *781:8 0.0286758
9 *791:pd *791:pd_ibg 9.60205e-05
10 *791:pd *782:21 1.13952e-05
11 *781:26 *782:21 0.025838
12 *756:19 *781:20 0.000220874
13 *756:19 *781:22 0.00512917
14 *762:9 *781:10 0.000445026
15 *764:13 *781:10 0.00565194
16 *768:21 *781:26 0
17 *772:9 *781:10 0.00873042
18 *773:11 *781:20 8.22793e-06
19 *775:19 *781:20 3.10039e-05
20 *778:9 *781:10 0.021796
21 *779:8 *781:8 0
22 *779:8 *781:10 4.07606e-05
23 *779:10 *781:10 0.0628265
24 *780:21 *791:pd 9.82825e-06
25 *780:21 *781:26 0.00413555
*RES
1 *788:analog_ctrl[94] *781:8 3.9364 
2 *781:8 *781:10 134.028 
3 *781:10 *781:20 11.9681 
4 *781:20 *781:22 116.357 
5 *781:22 *781:24 4.5 
6 *781:24 *781:26 356.366 
7 *781:26 *791:pd 1.45982 
*END

*D_NET *782 0.2119
*CONN
*I *791:pd_ibg I *D CF_BGR
*I *788:analog_ctrl[95] O *D afe_wb
*CAP
1 *791:pd_ibg 2.8043e-05
2 *788:analog_ctrl[95] 0.000325048
3 *782:21 0.0104684
4 *782:19 0.017916
5 *782:13 0.0191647
6 *782:11 0.0120141
7 *782:11 *783:11 0.000166288
8 *782:13 *784:13 0.0614981
9 *791:mux2sel *782:21 0.000536277
10 *791:mux1sel[1] *791:pd_ibg 6.95138e-06
11 *791:dft_sel *791:pd_ibg 0.000108051
12 *791:pd *791:pd_ibg 9.60205e-05
13 *791:pd *782:21 1.13952e-05
14 *674:13 *782:11 0
15 *767:13 *782:13 0.0622305
16 *768:21 *782:21 0
17 *775:13 *782:13 0.000517326
18 *777:13 *782:13 0.000974873
19 *780:11 *782:11 0
20 *781:26 *782:21 0.025838
*RES
1 *788:analog_ctrl[95] *782:11 4.7166 
2 *782:11 *782:13 800.946 
3 *782:13 *782:19 28.5591 
4 *782:19 *782:21 322.518 
5 *782:21 *791:pd_ibg 1.44643 
*END

*D_NET *783 0.122215
*CONN
*I *791:finetune I *D CF_BGR
*I *788:analog_ctrl[96] O *D afe_wb
*CAP
1 *791:finetune 7.07721e-05
2 *788:analog_ctrl[96] 0.00476058
3 *783:13 0.0554358
4 *783:11 0.0601256
5 *783:11 *784:11 0.000289616
6 *672:13 *783:13 0
7 *678:13 *783:11 0.00136639
8 *782:11 *783:11 0.000166288
*RES
1 *788:analog_ctrl[96] *783:11 19.6031 
2 *783:11 *783:13 1126.38 
3 *783:13 *791:finetune 1.50893 
*END

*D_NET *784 0.228658
*CONN
*I *791:en_startb I *D CF_BGR
*I *788:analog_ctrl[97] O *D afe_wb
*CAP
1 *791:en_startb 0.000102361
2 *788:analog_ctrl[97] 0.000227629
3 *784:21 0.0353171
4 *784:19 0.041386
5 *784:13 0.0168862
6 *784:11 0.0109426
7 *3:16 *784:21 0
8 *3:22 *784:21 0
9 *678:13 *784:11 0.00037142
10 *758:19 *784:19 0
11 *771:29 *784:19 0.00131592
12 *775:13 *784:13 0.0603213
13 *782:13 *784:13 0.0614981
14 *783:11 *784:11 0.000289616
*RES
1 *788:analog_ctrl[97] *784:11 4.78867 
2 *784:11 *784:13 762.696 
3 *784:13 *784:19 24.8476 
4 *784:19 *784:21 110.629 
5 *784:21 *791:en_startb 12.2602 
*END

*D_NET *787 0.220163
*CONN
*I *789:pd_ana I *D CF_ADC_SAR12
*I *790:pd_ana I *D CF_ADC_SAR12_sar_refs
*I *788:analog_ctrl[9] O *D afe_wb
*CAP
1 *789:pd_ana 5.16329e-05
2 *790:pd_ana 0.0368486
3 *788:analog_ctrl[9] 0.000214864
4 *787:61 0.0197042
5 *787:21 0.061098
6 *787:15 0.0129385
7 *787:9 0.0198101
8 *787:7 0.0116832
9 *789:dft_outc[2] *787:61 0.00087755
10 *789:dft_outc[1] *789:pd_ana 4.69965e-05
11 *789:dft_outc[1] *787:61 0.000290133
12 *790:pd *790:pd_ana 8.23336e-05
13 *790:sw_start *790:pd_ana 0
14 *790:refout_en *790:pd_ana 0.00192316
15 *15:28 *787:61 0.000155355
16 *107:44 *787:61 8.22793e-06
17 *676:7 *787:7 3.27392e-05
18 *676:7 *787:9 4.20253e-06
19 *676:9 *787:9 0.0093432
20 *692:19 *790:pd_ana 0.00427493
21 *692:25 *790:pd_ana 0.00167002
22 *692:44 *790:pd_ana 0.00754917
23 *729:13 *787:15 0.0181158
24 *776:11 *787:7 3.69417e-05
25 *776:11 *787:9 0.00683679
26 *776:23 *787:21 0.000190371
27 *776:33 *790:pd_ana 0.000756236
28 *776:51 *790:pd_ana 0.00561956
*RES
1 *788:analog_ctrl[9] *787:7 0.471567 
2 *787:7 *787:9 54.2411 
3 *787:9 *787:15 44.8994 
4 *787:15 *787:21 24.1302 
5 *787:21 *790:pd_ana 44.0351 
6 *787:21 *787:61 408.58 
7 *787:61 *789:pd_ana 1.51339 
*END
