*SPEF "ieee 1481-1999"
*DESIGN "user_project_wrapper"
*DATE "20:46:07 Sunday September 06, 2026"
*VENDOR "The OpenROAD Project"
*PROGRAM "OpenROAD"
*VERSION "dcf36133a369abc8f3c5e5738cd4d82e4903c0e0"
*DESIGN_FLOW "NAME_SCOPE LOCAL" "PIN_CAP NONE"
*DIVIDER /
*DELIMITER :
*BUS_DELIMITER []
*T_UNIT 1 NS
*C_UNIT 1 PF
*R_UNIT 1 OHM
*L_UNIT 1 HENRY

*NAME_MAP
*1 analog_io[0]
*2 analog_io[10]
*3 analog_io[11]
*4 analog_io[12]
*5 analog_io[13]
*6 analog_io[14]
*7 analog_io[15]
*8 analog_io[16]
*9 analog_io[17]
*10 analog_io[18]
*11 analog_io[19]
*12 analog_io[1]
*13 analog_io[20]
*14 analog_io[21]
*15 analog_io[22]
*16 analog_io[23]
*17 analog_io[24]
*18 analog_io[25]
*19 analog_io[26]
*20 analog_io[27]
*21 analog_io[28]
*22 analog_io[2]
*23 analog_io[3]
*24 analog_io[4]
*25 analog_io[5]
*26 analog_io[6]
*27 analog_io[7]
*28 analog_io[8]
*29 analog_io[9]
*30 io_in[0]
*31 io_in[10]
*32 io_in[11]
*33 io_in[12]
*34 io_in[13]
*35 io_in[14]
*36 io_in[15]
*37 io_in[16]
*38 io_in[17]
*39 io_in[18]
*40 io_in[19]
*41 io_in[1]
*42 io_in[20]
*43 io_in[21]
*44 io_in[22]
*45 io_in[23]
*46 io_in[24]
*47 io_in[25]
*48 io_in[26]
*49 io_in[27]
*50 io_in[28]
*51 io_in[29]
*52 io_in[2]
*53 io_in[30]
*54 io_in[31]
*55 io_in[32]
*56 io_in[33]
*57 io_in[34]
*58 io_in[35]
*59 io_in[36]
*60 io_in[37]
*61 io_in[3]
*62 io_in[4]
*63 io_in[5]
*64 io_in[6]
*65 io_in[7]
*66 io_in[8]
*67 io_in[9]
*68 io_oeb[0]
*69 io_oeb[10]
*70 io_oeb[11]
*71 io_oeb[12]
*72 io_oeb[13]
*73 io_oeb[14]
*74 io_oeb[15]
*75 io_oeb[16]
*76 io_oeb[17]
*77 io_oeb[18]
*78 io_oeb[19]
*79 io_oeb[1]
*80 io_oeb[20]
*81 io_oeb[21]
*82 io_oeb[22]
*83 io_oeb[23]
*84 io_oeb[24]
*85 io_oeb[25]
*86 io_oeb[26]
*87 io_oeb[27]
*88 io_oeb[28]
*89 io_oeb[29]
*90 io_oeb[2]
*91 io_oeb[30]
*92 io_oeb[31]
*93 io_oeb[32]
*94 io_oeb[33]
*95 io_oeb[34]
*96 io_oeb[35]
*97 io_oeb[36]
*98 io_oeb[37]
*99 io_oeb[3]
*100 io_oeb[4]
*101 io_oeb[5]
*102 io_oeb[6]
*103 io_oeb[7]
*104 io_oeb[8]
*105 io_oeb[9]
*106 io_out[0]
*107 io_out[10]
*108 io_out[11]
*109 io_out[12]
*110 io_out[13]
*111 io_out[14]
*112 io_out[15]
*113 io_out[16]
*114 io_out[17]
*115 io_out[18]
*116 io_out[19]
*117 io_out[1]
*118 io_out[20]
*119 io_out[21]
*120 io_out[22]
*121 io_out[23]
*122 io_out[24]
*123 io_out[25]
*124 io_out[26]
*125 io_out[27]
*126 io_out[28]
*127 io_out[29]
*128 io_out[2]
*129 io_out[30]
*130 io_out[31]
*131 io_out[32]
*132 io_out[33]
*133 io_out[34]
*134 io_out[35]
*135 io_out[36]
*136 io_out[37]
*137 io_out[3]
*138 io_out[4]
*139 io_out[5]
*140 io_out[6]
*141 io_out[7]
*142 io_out[8]
*143 io_out[9]
*144 la_data_in[0]
*145 la_data_in[100]
*146 la_data_in[101]
*147 la_data_in[102]
*148 la_data_in[103]
*149 la_data_in[104]
*150 la_data_in[105]
*151 la_data_in[106]
*152 la_data_in[107]
*153 la_data_in[108]
*154 la_data_in[109]
*155 la_data_in[10]
*156 la_data_in[110]
*157 la_data_in[111]
*158 la_data_in[112]
*159 la_data_in[113]
*160 la_data_in[114]
*161 la_data_in[115]
*162 la_data_in[116]
*163 la_data_in[117]
*164 la_data_in[118]
*165 la_data_in[119]
*166 la_data_in[11]
*167 la_data_in[120]
*168 la_data_in[121]
*169 la_data_in[122]
*170 la_data_in[123]
*171 la_data_in[124]
*172 la_data_in[125]
*173 la_data_in[126]
*174 la_data_in[127]
*175 la_data_in[12]
*176 la_data_in[13]
*177 la_data_in[14]
*178 la_data_in[15]
*179 la_data_in[16]
*180 la_data_in[17]
*181 la_data_in[18]
*182 la_data_in[19]
*183 la_data_in[1]
*184 la_data_in[20]
*185 la_data_in[21]
*186 la_data_in[22]
*187 la_data_in[23]
*188 la_data_in[24]
*189 la_data_in[25]
*190 la_data_in[26]
*191 la_data_in[27]
*192 la_data_in[28]
*193 la_data_in[29]
*194 la_data_in[2]
*195 la_data_in[30]
*196 la_data_in[31]
*197 la_data_in[32]
*198 la_data_in[33]
*199 la_data_in[34]
*200 la_data_in[35]
*201 la_data_in[36]
*202 la_data_in[37]
*203 la_data_in[38]
*204 la_data_in[39]
*205 la_data_in[3]
*206 la_data_in[40]
*207 la_data_in[41]
*208 la_data_in[42]
*209 la_data_in[43]
*210 la_data_in[44]
*211 la_data_in[45]
*212 la_data_in[46]
*213 la_data_in[47]
*214 la_data_in[48]
*215 la_data_in[49]
*216 la_data_in[4]
*217 la_data_in[50]
*218 la_data_in[51]
*219 la_data_in[52]
*220 la_data_in[53]
*221 la_data_in[54]
*222 la_data_in[55]
*223 la_data_in[56]
*224 la_data_in[57]
*225 la_data_in[58]
*226 la_data_in[59]
*227 la_data_in[5]
*228 la_data_in[60]
*229 la_data_in[61]
*230 la_data_in[62]
*231 la_data_in[63]
*232 la_data_in[64]
*233 la_data_in[65]
*234 la_data_in[66]
*235 la_data_in[67]
*236 la_data_in[68]
*237 la_data_in[69]
*238 la_data_in[6]
*239 la_data_in[70]
*240 la_data_in[71]
*241 la_data_in[72]
*242 la_data_in[73]
*243 la_data_in[74]
*244 la_data_in[75]
*245 la_data_in[76]
*246 la_data_in[77]
*247 la_data_in[78]
*248 la_data_in[79]
*249 la_data_in[7]
*250 la_data_in[80]
*251 la_data_in[81]
*252 la_data_in[82]
*253 la_data_in[83]
*254 la_data_in[84]
*255 la_data_in[85]
*256 la_data_in[86]
*257 la_data_in[87]
*258 la_data_in[88]
*259 la_data_in[89]
*260 la_data_in[8]
*261 la_data_in[90]
*262 la_data_in[91]
*263 la_data_in[92]
*264 la_data_in[93]
*265 la_data_in[94]
*266 la_data_in[95]
*267 la_data_in[96]
*268 la_data_in[97]
*269 la_data_in[98]
*270 la_data_in[99]
*271 la_data_in[9]
*272 la_data_out[0]
*273 la_data_out[100]
*274 la_data_out[101]
*275 la_data_out[102]
*276 la_data_out[103]
*277 la_data_out[104]
*278 la_data_out[105]
*279 la_data_out[106]
*280 la_data_out[107]
*281 la_data_out[108]
*282 la_data_out[109]
*283 la_data_out[10]
*284 la_data_out[110]
*285 la_data_out[111]
*286 la_data_out[112]
*287 la_data_out[113]
*288 la_data_out[114]
*289 la_data_out[115]
*290 la_data_out[116]
*291 la_data_out[117]
*292 la_data_out[118]
*293 la_data_out[119]
*294 la_data_out[11]
*295 la_data_out[120]
*296 la_data_out[121]
*297 la_data_out[122]
*298 la_data_out[123]
*299 la_data_out[124]
*300 la_data_out[125]
*301 la_data_out[126]
*302 la_data_out[127]
*303 la_data_out[12]
*304 la_data_out[13]
*305 la_data_out[14]
*306 la_data_out[15]
*307 la_data_out[16]
*308 la_data_out[17]
*309 la_data_out[18]
*310 la_data_out[19]
*311 la_data_out[1]
*312 la_data_out[20]
*313 la_data_out[21]
*314 la_data_out[22]
*315 la_data_out[23]
*316 la_data_out[24]
*317 la_data_out[25]
*318 la_data_out[26]
*319 la_data_out[27]
*320 la_data_out[28]
*321 la_data_out[29]
*322 la_data_out[2]
*323 la_data_out[30]
*324 la_data_out[31]
*325 la_data_out[32]
*326 la_data_out[33]
*327 la_data_out[34]
*328 la_data_out[35]
*329 la_data_out[36]
*330 la_data_out[37]
*331 la_data_out[38]
*332 la_data_out[39]
*333 la_data_out[3]
*334 la_data_out[40]
*335 la_data_out[41]
*336 la_data_out[42]
*337 la_data_out[43]
*338 la_data_out[44]
*339 la_data_out[45]
*340 la_data_out[46]
*341 la_data_out[47]
*342 la_data_out[48]
*343 la_data_out[49]
*344 la_data_out[4]
*345 la_data_out[50]
*346 la_data_out[51]
*347 la_data_out[52]
*348 la_data_out[53]
*349 la_data_out[54]
*350 la_data_out[55]
*351 la_data_out[56]
*352 la_data_out[57]
*353 la_data_out[58]
*354 la_data_out[59]
*355 la_data_out[5]
*356 la_data_out[60]
*357 la_data_out[61]
*358 la_data_out[62]
*359 la_data_out[63]
*360 la_data_out[64]
*361 la_data_out[65]
*362 la_data_out[66]
*363 la_data_out[67]
*364 la_data_out[68]
*365 la_data_out[69]
*366 la_data_out[6]
*367 la_data_out[70]
*368 la_data_out[71]
*369 la_data_out[72]
*370 la_data_out[73]
*371 la_data_out[74]
*372 la_data_out[75]
*373 la_data_out[76]
*374 la_data_out[77]
*375 la_data_out[78]
*376 la_data_out[79]
*377 la_data_out[7]
*378 la_data_out[80]
*379 la_data_out[81]
*380 la_data_out[82]
*381 la_data_out[83]
*382 la_data_out[84]
*383 la_data_out[85]
*384 la_data_out[86]
*385 la_data_out[87]
*386 la_data_out[88]
*387 la_data_out[89]
*388 la_data_out[8]
*389 la_data_out[90]
*390 la_data_out[91]
*391 la_data_out[92]
*392 la_data_out[93]
*393 la_data_out[94]
*394 la_data_out[95]
*395 la_data_out[96]
*396 la_data_out[97]
*397 la_data_out[98]
*398 la_data_out[99]
*399 la_data_out[9]
*400 la_oenb[0]
*401 la_oenb[100]
*402 la_oenb[101]
*403 la_oenb[102]
*404 la_oenb[103]
*405 la_oenb[104]
*406 la_oenb[105]
*407 la_oenb[106]
*408 la_oenb[107]
*409 la_oenb[108]
*410 la_oenb[109]
*411 la_oenb[10]
*412 la_oenb[110]
*413 la_oenb[111]
*414 la_oenb[112]
*415 la_oenb[113]
*416 la_oenb[114]
*417 la_oenb[115]
*418 la_oenb[116]
*419 la_oenb[117]
*420 la_oenb[118]
*421 la_oenb[119]
*422 la_oenb[11]
*423 la_oenb[120]
*424 la_oenb[121]
*425 la_oenb[122]
*426 la_oenb[123]
*427 la_oenb[124]
*428 la_oenb[125]
*429 la_oenb[126]
*430 la_oenb[127]
*431 la_oenb[12]
*432 la_oenb[13]
*433 la_oenb[14]
*434 la_oenb[15]
*435 la_oenb[16]
*436 la_oenb[17]
*437 la_oenb[18]
*438 la_oenb[19]
*439 la_oenb[1]
*440 la_oenb[20]
*441 la_oenb[21]
*442 la_oenb[22]
*443 la_oenb[23]
*444 la_oenb[24]
*445 la_oenb[25]
*446 la_oenb[26]
*447 la_oenb[27]
*448 la_oenb[28]
*449 la_oenb[29]
*450 la_oenb[2]
*451 la_oenb[30]
*452 la_oenb[31]
*453 la_oenb[32]
*454 la_oenb[33]
*455 la_oenb[34]
*456 la_oenb[35]
*457 la_oenb[36]
*458 la_oenb[37]
*459 la_oenb[38]
*460 la_oenb[39]
*461 la_oenb[3]
*462 la_oenb[40]
*463 la_oenb[41]
*464 la_oenb[42]
*465 la_oenb[43]
*466 la_oenb[44]
*467 la_oenb[45]
*468 la_oenb[46]
*469 la_oenb[47]
*470 la_oenb[48]
*471 la_oenb[49]
*472 la_oenb[4]
*473 la_oenb[50]
*474 la_oenb[51]
*475 la_oenb[52]
*476 la_oenb[53]
*477 la_oenb[54]
*478 la_oenb[55]
*479 la_oenb[56]
*480 la_oenb[57]
*481 la_oenb[58]
*482 la_oenb[59]
*483 la_oenb[5]
*484 la_oenb[60]
*485 la_oenb[61]
*486 la_oenb[62]
*487 la_oenb[63]
*488 la_oenb[64]
*489 la_oenb[65]
*490 la_oenb[66]
*491 la_oenb[67]
*492 la_oenb[68]
*493 la_oenb[69]
*494 la_oenb[6]
*495 la_oenb[70]
*496 la_oenb[71]
*497 la_oenb[72]
*498 la_oenb[73]
*499 la_oenb[74]
*500 la_oenb[75]
*501 la_oenb[76]
*502 la_oenb[77]
*503 la_oenb[78]
*504 la_oenb[79]
*505 la_oenb[7]
*506 la_oenb[80]
*507 la_oenb[81]
*508 la_oenb[82]
*509 la_oenb[83]
*510 la_oenb[84]
*511 la_oenb[85]
*512 la_oenb[86]
*513 la_oenb[87]
*514 la_oenb[88]
*515 la_oenb[89]
*516 la_oenb[8]
*517 la_oenb[90]
*518 la_oenb[91]
*519 la_oenb[92]
*520 la_oenb[93]
*521 la_oenb[94]
*522 la_oenb[95]
*523 la_oenb[96]
*524 la_oenb[97]
*525 la_oenb[98]
*526 la_oenb[99]
*527 la_oenb[9]
*528 user_clock2
*529 user_irq[0]
*530 user_irq[1]
*531 user_irq[2]
*540 wb_clk_i
*541 wb_rst_i
*542 wbs_ack_o
*543 wbs_adr_i[0]
*544 wbs_adr_i[10]
*545 wbs_adr_i[11]
*546 wbs_adr_i[12]
*547 wbs_adr_i[13]
*548 wbs_adr_i[14]
*549 wbs_adr_i[15]
*550 wbs_adr_i[16]
*551 wbs_adr_i[17]
*552 wbs_adr_i[18]
*553 wbs_adr_i[19]
*554 wbs_adr_i[1]
*555 wbs_adr_i[20]
*556 wbs_adr_i[21]
*557 wbs_adr_i[22]
*558 wbs_adr_i[23]
*559 wbs_adr_i[24]
*560 wbs_adr_i[25]
*561 wbs_adr_i[26]
*562 wbs_adr_i[27]
*563 wbs_adr_i[28]
*564 wbs_adr_i[29]
*565 wbs_adr_i[2]
*566 wbs_adr_i[30]
*567 wbs_adr_i[31]
*568 wbs_adr_i[3]
*569 wbs_adr_i[4]
*570 wbs_adr_i[5]
*571 wbs_adr_i[6]
*572 wbs_adr_i[7]
*573 wbs_adr_i[8]
*574 wbs_adr_i[9]
*575 wbs_cyc_i
*576 wbs_dat_i[0]
*577 wbs_dat_i[10]
*578 wbs_dat_i[11]
*579 wbs_dat_i[12]
*580 wbs_dat_i[13]
*581 wbs_dat_i[14]
*582 wbs_dat_i[15]
*583 wbs_dat_i[16]
*584 wbs_dat_i[17]
*585 wbs_dat_i[18]
*586 wbs_dat_i[19]
*587 wbs_dat_i[1]
*588 wbs_dat_i[20]
*589 wbs_dat_i[21]
*590 wbs_dat_i[22]
*591 wbs_dat_i[23]
*592 wbs_dat_i[24]
*593 wbs_dat_i[25]
*594 wbs_dat_i[26]
*595 wbs_dat_i[27]
*596 wbs_dat_i[28]
*597 wbs_dat_i[29]
*598 wbs_dat_i[2]
*599 wbs_dat_i[30]
*600 wbs_dat_i[31]
*601 wbs_dat_i[3]
*602 wbs_dat_i[4]
*603 wbs_dat_i[5]
*604 wbs_dat_i[6]
*605 wbs_dat_i[7]
*606 wbs_dat_i[8]
*607 wbs_dat_i[9]
*608 wbs_dat_o[0]
*609 wbs_dat_o[10]
*610 wbs_dat_o[11]
*611 wbs_dat_o[12]
*612 wbs_dat_o[13]
*613 wbs_dat_o[14]
*614 wbs_dat_o[15]
*615 wbs_dat_o[16]
*616 wbs_dat_o[17]
*617 wbs_dat_o[18]
*618 wbs_dat_o[19]
*619 wbs_dat_o[1]
*620 wbs_dat_o[20]
*621 wbs_dat_o[21]
*622 wbs_dat_o[22]
*623 wbs_dat_o[23]
*624 wbs_dat_o[24]
*625 wbs_dat_o[25]
*626 wbs_dat_o[26]
*627 wbs_dat_o[27]
*628 wbs_dat_o[28]
*629 wbs_dat_o[29]
*630 wbs_dat_o[2]
*631 wbs_dat_o[30]
*632 wbs_dat_o[31]
*633 wbs_dat_o[3]
*634 wbs_dat_o[4]
*635 wbs_dat_o[5]
*636 wbs_dat_o[6]
*637 wbs_dat_o[7]
*638 wbs_dat_o[8]
*639 wbs_dat_o[9]
*640 wbs_sel_i[0]
*641 wbs_sel_i[1]
*642 wbs_sel_i[2]
*643 wbs_sel_i[3]
*644 wbs_stb_i
*645 wbs_we_i
*646 afe_data\[0\]
*647 afe_data\[10\]
*648 afe_data\[11\]
*649 afe_data\[1\]
*650 afe_data\[2\]
*651 afe_data\[3\]
*652 afe_data\[4\]
*653 afe_data\[5\]
*654 afe_data\[6\]
*655 afe_data\[7\]
*656 afe_data\[8\]
*657 afe_data\[9\]
*658 afe_eof
*659 afe_ibias
*660 afe_nbias
*661 afe_refby2
*662 afe_refhi
*663 afe_vout
*664 afe_vref
*665 analog_ctrl\[0\]
*666 analog_ctrl\[100\]
*667 analog_ctrl\[101\]
*668 analog_ctrl\[102\]
*669 analog_ctrl\[103\]
*670 analog_ctrl\[104\]
*671 analog_ctrl\[105\]
*672 analog_ctrl\[106\]
*673 analog_ctrl\[107\]
*674 analog_ctrl\[108\]
*675 analog_ctrl\[109\]
*676 analog_ctrl\[10\]
*677 analog_ctrl\[110\]
*678 analog_ctrl\[111\]
*679 analog_ctrl\[112\]
*680 analog_ctrl\[113\]
*681 analog_ctrl\[114\]
*682 analog_ctrl\[115\]
*683 analog_ctrl\[116\]
*684 analog_ctrl\[117\]
*685 analog_ctrl\[118\]
*686 analog_ctrl\[119\]
*687 analog_ctrl\[11\]
*688 analog_ctrl\[120\]
*689 analog_ctrl\[121\]
*690 analog_ctrl\[122\]
*691 analog_ctrl\[12\]
*692 analog_ctrl\[13\]
*693 analog_ctrl\[14\]
*694 analog_ctrl\[15\]
*695 analog_ctrl\[16\]
*696 analog_ctrl\[17\]
*697 analog_ctrl\[18\]
*698 analog_ctrl\[19\]
*699 analog_ctrl\[1\]
*700 analog_ctrl\[20\]
*701 analog_ctrl\[21\]
*702 analog_ctrl\[22\]
*703 analog_ctrl\[23\]
*704 analog_ctrl\[24\]
*705 analog_ctrl\[25\]
*706 analog_ctrl\[26\]
*707 analog_ctrl\[27\]
*708 analog_ctrl\[28\]
*709 analog_ctrl\[29\]
*710 analog_ctrl\[2\]
*711 analog_ctrl\[30\]
*712 analog_ctrl\[31\]
*713 analog_ctrl\[32\]
*714 analog_ctrl\[33\]
*715 analog_ctrl\[34\]
*716 analog_ctrl\[35\]
*717 analog_ctrl\[36\]
*718 analog_ctrl\[37\]
*719 analog_ctrl\[38\]
*720 analog_ctrl\[39\]
*721 analog_ctrl\[3\]
*722 analog_ctrl\[40\]
*723 analog_ctrl\[41\]
*724 analog_ctrl\[42\]
*725 analog_ctrl\[43\]
*726 analog_ctrl\[44\]
*727 analog_ctrl\[45\]
*728 analog_ctrl\[46\]
*729 analog_ctrl\[47\]
*730 analog_ctrl\[48\]
*731 analog_ctrl\[49\]
*732 analog_ctrl\[4\]
*733 analog_ctrl\[50\]
*734 analog_ctrl\[51\]
*735 analog_ctrl\[52\]
*736 analog_ctrl\[53\]
*737 analog_ctrl\[54\]
*738 analog_ctrl\[55\]
*739 analog_ctrl\[56\]
*740 analog_ctrl\[57\]
*741 analog_ctrl\[58\]
*742 analog_ctrl\[59\]
*743 analog_ctrl\[5\]
*744 analog_ctrl\[60\]
*745 analog_ctrl\[61\]
*746 analog_ctrl\[62\]
*747 analog_ctrl\[63\]
*748 analog_ctrl\[64\]
*749 analog_ctrl\[65\]
*750 analog_ctrl\[66\]
*751 analog_ctrl\[67\]
*752 analog_ctrl\[68\]
*753 analog_ctrl\[69\]
*754 analog_ctrl\[6\]
*755 analog_ctrl\[70\]
*756 analog_ctrl\[71\]
*757 analog_ctrl\[72\]
*758 analog_ctrl\[73\]
*759 analog_ctrl\[74\]
*760 analog_ctrl\[75\]
*761 analog_ctrl\[76\]
*762 analog_ctrl\[77\]
*763 analog_ctrl\[78\]
*764 analog_ctrl\[79\]
*765 analog_ctrl\[7\]
*766 analog_ctrl\[80\]
*767 analog_ctrl\[81\]
*768 analog_ctrl\[82\]
*769 analog_ctrl\[83\]
*770 analog_ctrl\[84\]
*771 analog_ctrl\[85\]
*772 analog_ctrl\[86\]
*773 analog_ctrl\[87\]
*774 analog_ctrl\[88\]
*775 analog_ctrl\[89\]
*776 analog_ctrl\[8\]
*777 analog_ctrl\[90\]
*778 analog_ctrl\[91\]
*779 analog_ctrl\[92\]
*780 analog_ctrl\[93\]
*781 analog_ctrl\[94\]
*782 analog_ctrl\[95\]
*783 analog_ctrl\[96\]
*784 analog_ctrl\[97\]
*785 analog_ctrl\[98\]
*786 analog_ctrl\[99\]
*787 analog_ctrl\[9\]
*788 u_afe_wb
*789 u_cf_adc_sar12
*790 u_cf_adc_sar12_sar_refs
*791 u_cf_bgr
*792 u_cf_buf_hiz
*793 u_cf_refbuf

*PORTS
analog_io[0] I
analog_io[10] I
analog_io[11] I
analog_io[12] I
analog_io[13] I
analog_io[14] I
analog_io[15] I
analog_io[16] I
analog_io[17] I
analog_io[18] I
analog_io[19] I
analog_io[1] I
analog_io[20] I
analog_io[21] I
analog_io[22] I
analog_io[23] I
analog_io[24] I
analog_io[25] I
analog_io[26] I
analog_io[27] I
analog_io[28] I
analog_io[2] I
analog_io[3] I
analog_io[4] I
analog_io[5] I
analog_io[6] I
analog_io[7] I
analog_io[8] I
analog_io[9] I
io_in[0] I
io_in[10] I
io_in[11] I
io_in[12] I
io_in[13] I
io_in[14] I
io_in[15] I
io_in[16] I
io_in[17] I
io_in[18] I
io_in[19] I
io_in[1] I
io_in[20] I
io_in[21] I
io_in[22] I
io_in[23] I
io_in[24] I
io_in[25] I
io_in[26] I
io_in[27] I
io_in[28] I
io_in[29] I
io_in[2] I
io_in[30] I
io_in[31] I
io_in[32] I
io_in[33] I
io_in[34] I
io_in[35] I
io_in[36] I
io_in[37] I
io_in[3] I
io_in[4] I
io_in[5] I
io_in[6] I
io_in[7] I
io_in[8] I
io_in[9] I
io_oeb[0] O
io_oeb[10] O
io_oeb[11] O
io_oeb[12] O
io_oeb[13] O
io_oeb[14] O
io_oeb[15] O
io_oeb[16] O
io_oeb[17] O
io_oeb[18] O
io_oeb[19] O
io_oeb[1] O
io_oeb[20] O
io_oeb[21] O
io_oeb[22] O
io_oeb[23] O
io_oeb[24] O
io_oeb[25] O
io_oeb[26] O
io_oeb[27] O
io_oeb[28] O
io_oeb[29] O
io_oeb[2] O
io_oeb[30] O
io_oeb[31] O
io_oeb[32] O
io_oeb[33] O
io_oeb[34] O
io_oeb[35] O
io_oeb[36] O
io_oeb[37] O
io_oeb[3] O
io_oeb[4] O
io_oeb[5] O
io_oeb[6] O
io_oeb[7] O
io_oeb[8] O
io_oeb[9] O
io_out[0] O
io_out[10] O
io_out[11] O
io_out[12] O
io_out[13] O
io_out[14] O
io_out[15] O
io_out[16] O
io_out[17] O
io_out[18] O
io_out[19] O
io_out[1] O
io_out[20] O
io_out[21] O
io_out[22] O
io_out[23] O
io_out[24] O
io_out[25] O
io_out[26] O
io_out[27] O
io_out[28] O
io_out[29] O
io_out[2] O
io_out[30] O
io_out[31] O
io_out[32] O
io_out[33] O
io_out[34] O
io_out[35] O
io_out[36] O
io_out[37] O
io_out[3] O
io_out[4] O
io_out[5] O
io_out[6] O
io_out[7] O
io_out[8] O
io_out[9] O
la_data_in[0] I
la_data_in[100] I
la_data_in[101] I
la_data_in[102] I
la_data_in[103] I
la_data_in[104] I
la_data_in[105] I
la_data_in[106] I
la_data_in[107] I
la_data_in[108] I
la_data_in[109] I
la_data_in[10] I
la_data_in[110] I
la_data_in[111] I
la_data_in[112] I
la_data_in[113] I
la_data_in[114] I
la_data_in[115] I
la_data_in[116] I
la_data_in[117] I
la_data_in[118] I
la_data_in[119] I
la_data_in[11] I
la_data_in[120] I
la_data_in[121] I
la_data_in[122] I
la_data_in[123] I
la_data_in[124] I
la_data_in[125] I
la_data_in[126] I
la_data_in[127] I
la_data_in[12] I
la_data_in[13] I
la_data_in[14] I
la_data_in[15] I
la_data_in[16] I
la_data_in[17] I
la_data_in[18] I
la_data_in[19] I
la_data_in[1] I
la_data_in[20] I
la_data_in[21] I
la_data_in[22] I
la_data_in[23] I
la_data_in[24] I
la_data_in[25] I
la_data_in[26] I
la_data_in[27] I
la_data_in[28] I
la_data_in[29] I
la_data_in[2] I
la_data_in[30] I
la_data_in[31] I
la_data_in[32] I
la_data_in[33] I
la_data_in[34] I
la_data_in[35] I
la_data_in[36] I
la_data_in[37] I
la_data_in[38] I
la_data_in[39] I
la_data_in[3] I
la_data_in[40] I
la_data_in[41] I
la_data_in[42] I
la_data_in[43] I
la_data_in[44] I
la_data_in[45] I
la_data_in[46] I
la_data_in[47] I
la_data_in[48] I
la_data_in[49] I
la_data_in[4] I
la_data_in[50] I
la_data_in[51] I
la_data_in[52] I
la_data_in[53] I
la_data_in[54] I
la_data_in[55] I
la_data_in[56] I
la_data_in[57] I
la_data_in[58] I
la_data_in[59] I
la_data_in[5] I
la_data_in[60] I
la_data_in[61] I
la_data_in[62] I
la_data_in[63] I
la_data_in[64] I
la_data_in[65] I
la_data_in[66] I
la_data_in[67] I
la_data_in[68] I
la_data_in[69] I
la_data_in[6] I
la_data_in[70] I
la_data_in[71] I
la_data_in[72] I
la_data_in[73] I
la_data_in[74] I
la_data_in[75] I
la_data_in[76] I
la_data_in[77] I
la_data_in[78] I
la_data_in[79] I
la_data_in[7] I
la_data_in[80] I
la_data_in[81] I
la_data_in[82] I
la_data_in[83] I
la_data_in[84] I
la_data_in[85] I
la_data_in[86] I
la_data_in[87] I
la_data_in[88] I
la_data_in[89] I
la_data_in[8] I
la_data_in[90] I
la_data_in[91] I
la_data_in[92] I
la_data_in[93] I
la_data_in[94] I
la_data_in[95] I
la_data_in[96] I
la_data_in[97] I
la_data_in[98] I
la_data_in[99] I
la_data_in[9] I
la_data_out[0] O
la_data_out[100] O
la_data_out[101] O
la_data_out[102] O
la_data_out[103] O
la_data_out[104] O
la_data_out[105] O
la_data_out[106] O
la_data_out[107] O
la_data_out[108] O
la_data_out[109] O
la_data_out[10] O
la_data_out[110] O
la_data_out[111] O
la_data_out[112] O
la_data_out[113] O
la_data_out[114] O
la_data_out[115] O
la_data_out[116] O
la_data_out[117] O
la_data_out[118] O
la_data_out[119] O
la_data_out[11] O
la_data_out[120] O
la_data_out[121] O
la_data_out[122] O
la_data_out[123] O
la_data_out[124] O
la_data_out[125] O
la_data_out[126] O
la_data_out[127] O
la_data_out[12] O
la_data_out[13] O
la_data_out[14] O
la_data_out[15] O
la_data_out[16] O
la_data_out[17] O
la_data_out[18] O
la_data_out[19] O
la_data_out[1] O
la_data_out[20] O
la_data_out[21] O
la_data_out[22] O
la_data_out[23] O
la_data_out[24] O
la_data_out[25] O
la_data_out[26] O
la_data_out[27] O
la_data_out[28] O
la_data_out[29] O
la_data_out[2] O
la_data_out[30] O
la_data_out[31] O
la_data_out[32] O
la_data_out[33] O
la_data_out[34] O
la_data_out[35] O
la_data_out[36] O
la_data_out[37] O
la_data_out[38] O
la_data_out[39] O
la_data_out[3] O
la_data_out[40] O
la_data_out[41] O
la_data_out[42] O
la_data_out[43] O
la_data_out[44] O
la_data_out[45] O
la_data_out[46] O
la_data_out[47] O
la_data_out[48] O
la_data_out[49] O
la_data_out[4] O
la_data_out[50] O
la_data_out[51] O
la_data_out[52] O
la_data_out[53] O
la_data_out[54] O
la_data_out[55] O
la_data_out[56] O
la_data_out[57] O
la_data_out[58] O
la_data_out[59] O
la_data_out[5] O
la_data_out[60] O
la_data_out[61] O
la_data_out[62] O
la_data_out[63] O
la_data_out[64] O
la_data_out[65] O
la_data_out[66] O
la_data_out[67] O
la_data_out[68] O
la_data_out[69] O
la_data_out[6] O
la_data_out[70] O
la_data_out[71] O
la_data_out[72] O
la_data_out[73] O
la_data_out[74] O
la_data_out[75] O
la_data_out[76] O
la_data_out[77] O
la_data_out[78] O
la_data_out[79] O
la_data_out[7] O
la_data_out[80] O
la_data_out[81] O
la_data_out[82] O
la_data_out[83] O
la_data_out[84] O
la_data_out[85] O
la_data_out[86] O
la_data_out[87] O
la_data_out[88] O
la_data_out[89] O
la_data_out[8] O
la_data_out[90] O
la_data_out[91] O
la_data_out[92] O
la_data_out[93] O
la_data_out[94] O
la_data_out[95] O
la_data_out[96] O
la_data_out[97] O
la_data_out[98] O
la_data_out[99] O
la_data_out[9] O
la_oenb[0] I
la_oenb[100] I
la_oenb[101] I
la_oenb[102] I
la_oenb[103] I
la_oenb[104] I
la_oenb[105] I
la_oenb[106] I
la_oenb[107] I
la_oenb[108] I
la_oenb[109] I
la_oenb[10] I
la_oenb[110] I
la_oenb[111] I
la_oenb[112] I
la_oenb[113] I
la_oenb[114] I
la_oenb[115] I
la_oenb[116] I
la_oenb[117] I
la_oenb[118] I
la_oenb[119] I
la_oenb[11] I
la_oenb[120] I
la_oenb[121] I
la_oenb[122] I
la_oenb[123] I
la_oenb[124] I
la_oenb[125] I
la_oenb[126] I
la_oenb[127] I
la_oenb[12] I
la_oenb[13] I
la_oenb[14] I
la_oenb[15] I
la_oenb[16] I
la_oenb[17] I
la_oenb[18] I
la_oenb[19] I
la_oenb[1] I
la_oenb[20] I
la_oenb[21] I
la_oenb[22] I
la_oenb[23] I
la_oenb[24] I
la_oenb[25] I
la_oenb[26] I
la_oenb[27] I
la_oenb[28] I
la_oenb[29] I
la_oenb[2] I
la_oenb[30] I
la_oenb[31] I
la_oenb[32] I
la_oenb[33] I
la_oenb[34] I
la_oenb[35] I
la_oenb[36] I
la_oenb[37] I
la_oenb[38] I
la_oenb[39] I
la_oenb[3] I
la_oenb[40] I
la_oenb[41] I
la_oenb[42] I
la_oenb[43] I
la_oenb[44] I
la_oenb[45] I
la_oenb[46] I
la_oenb[47] I
la_oenb[48] I
la_oenb[49] I
la_oenb[4] I
la_oenb[50] I
la_oenb[51] I
la_oenb[52] I
la_oenb[53] I
la_oenb[54] I
la_oenb[55] I
la_oenb[56] I
la_oenb[57] I
la_oenb[58] I
la_oenb[59] I
la_oenb[5] I
la_oenb[60] I
la_oenb[61] I
la_oenb[62] I
la_oenb[63] I
la_oenb[64] I
la_oenb[65] I
la_oenb[66] I
la_oenb[67] I
la_oenb[68] I
la_oenb[69] I
la_oenb[6] I
la_oenb[70] I
la_oenb[71] I
la_oenb[72] I
la_oenb[73] I
la_oenb[74] I
la_oenb[75] I
la_oenb[76] I
la_oenb[77] I
la_oenb[78] I
la_oenb[79] I
la_oenb[7] I
la_oenb[80] I
la_oenb[81] I
la_oenb[82] I
la_oenb[83] I
la_oenb[84] I
la_oenb[85] I
la_oenb[86] I
la_oenb[87] I
la_oenb[88] I
la_oenb[89] I
la_oenb[8] I
la_oenb[90] I
la_oenb[91] I
la_oenb[92] I
la_oenb[93] I
la_oenb[94] I
la_oenb[95] I
la_oenb[96] I
la_oenb[97] I
la_oenb[98] I
la_oenb[99] I
la_oenb[9] I
user_clock2 I
user_irq[0] O
user_irq[1] O
user_irq[2] O
wb_clk_i I
wb_rst_i I
wbs_ack_o O
wbs_adr_i[0] I
wbs_adr_i[10] I
wbs_adr_i[11] I
wbs_adr_i[12] I
wbs_adr_i[13] I
wbs_adr_i[14] I
wbs_adr_i[15] I
wbs_adr_i[16] I
wbs_adr_i[17] I
wbs_adr_i[18] I
wbs_adr_i[19] I
wbs_adr_i[1] I
wbs_adr_i[20] I
wbs_adr_i[21] I
wbs_adr_i[22] I
wbs_adr_i[23] I
wbs_adr_i[24] I
wbs_adr_i[25] I
wbs_adr_i[26] I
wbs_adr_i[27] I
wbs_adr_i[28] I
wbs_adr_i[29] I
wbs_adr_i[2] I
wbs_adr_i[30] I
wbs_adr_i[31] I
wbs_adr_i[3] I
wbs_adr_i[4] I
wbs_adr_i[5] I
wbs_adr_i[6] I
wbs_adr_i[7] I
wbs_adr_i[8] I
wbs_adr_i[9] I
wbs_cyc_i I
wbs_dat_i[0] I
wbs_dat_i[10] I
wbs_dat_i[11] I
wbs_dat_i[12] I
wbs_dat_i[13] I
wbs_dat_i[14] I
wbs_dat_i[15] I
wbs_dat_i[16] I
wbs_dat_i[17] I
wbs_dat_i[18] I
wbs_dat_i[19] I
wbs_dat_i[1] I
wbs_dat_i[20] I
wbs_dat_i[21] I
wbs_dat_i[22] I
wbs_dat_i[23] I
wbs_dat_i[24] I
wbs_dat_i[25] I
wbs_dat_i[26] I
wbs_dat_i[27] I
wbs_dat_i[28] I
wbs_dat_i[29] I
wbs_dat_i[2] I
wbs_dat_i[30] I
wbs_dat_i[31] I
wbs_dat_i[3] I
wbs_dat_i[4] I
wbs_dat_i[5] I
wbs_dat_i[6] I
wbs_dat_i[7] I
wbs_dat_i[8] I
wbs_dat_i[9] I
wbs_dat_o[0] O
wbs_dat_o[10] O
wbs_dat_o[11] O
wbs_dat_o[12] O
wbs_dat_o[13] O
wbs_dat_o[14] O
wbs_dat_o[15] O
wbs_dat_o[16] O
wbs_dat_o[17] O
wbs_dat_o[18] O
wbs_dat_o[19] O
wbs_dat_o[1] O
wbs_dat_o[20] O
wbs_dat_o[21] O
wbs_dat_o[22] O
wbs_dat_o[23] O
wbs_dat_o[24] O
wbs_dat_o[25] O
wbs_dat_o[26] O
wbs_dat_o[27] O
wbs_dat_o[28] O
wbs_dat_o[29] O
wbs_dat_o[2] O
wbs_dat_o[30] O
wbs_dat_o[31] O
wbs_dat_o[3] O
wbs_dat_o[4] O
wbs_dat_o[5] O
wbs_dat_o[6] O
wbs_dat_o[7] O
wbs_dat_o[8] O
wbs_dat_o[9] O
wbs_sel_i[0] I
wbs_sel_i[1] I
wbs_sel_i[2] I
wbs_sel_i[3] I
wbs_stb_i I
wbs_we_i I

*D_NET *1 0.259769
*CONN
*P analog_io[0] I
*I *791:vb2_fast I *D CF_BGR
*CAP
1 analog_io[0] 0.113347
2 *791:vb2_fast 8.21566e-05
3 *1:14 0.0106481
4 *1:12 0.0132514
5 *1:6 0.116032
6 *1:12 *25:10 0.00324813
7 *1:14 *791:en_startb 0.00316003
*RES
1 analog_io[0] *1:6 213.629 
2 *1:6 *1:12 26.2775 
3 *1:12 *1:14 181.92 
4 *1:14 *791:vb2_fast 1.63125 
*END

*D_NET *2 0.480604
*CONN
*P analog_io[10] I
*I *792:vbnt I *D CF_BUF_HIZ
*CAP
1 analog_io[10] 0.000384562
2 *792:vbnt 0
3 *2:42 0.0160247
4 *2:30 0.0284935
5 *2:28 0.0285494
6 *2:22 0.0617601
7 *2:20 0.0456797
8 *2:18 0.108701
9 *2:16 0.109085
10 *2:16 *29:10 2.62621e-05
11 *2:28 *5:12 0.00317601
12 *2:28 *5:14 0.00802382
13 *2:30 *789:sof 0
14 *2:30 *789:reset_n 0.00126862
15 *2:30 *791:CurrAbsTrim[2] 0
16 *2:30 *5:14 0.0284565
17 *2:30 *658:9 0.0239269
18 *2:42 *791:CurrAbsTrim[2] 0
19 *2:42 *4:34 0.0106617
20 *2:42 *5:14 4.85593e-05
21 *2:42 *5:28 0.0021189
22 *2:42 *7:18 0.00409137
23 *2:42 *18:26 0.00012749
*RES
1 analog_io[10] *2:16 2.34493 
2 *2:16 *2:18 210.287 
3 *2:18 *2:20 0.5 
4 *2:20 *2:22 80.8206 
5 *2:22 *2:28 35.197 
6 *2:28 *2:30 51.937 
7 *2:30 *2:42 42.8701 
8 *2:42 *792:vbnt 0.5 
*END

*D_NET *3 0.431309
*CONN
*P analog_io[11] I
*I *792:vbpb I *D CF_BUF_HIZ
*CAP
1 analog_io[11] 0.095296
2 *792:vbpb 7.22102e-05
3 *3:30 0.0200746
4 *3:10 0.0495591
5 *3:8 0.0295566
6 *3:6 0.095296
7 *3:10 *6:16 1.61792e-05
8 *3:10 *12:14 0.0684048
9 *3:10 *24:14 0.0019271
10 *3:10 *24:18 0.0512624
11 *3:10 *29:38 1.95055e-05
12 *3:30 *6:16 2.43296e-05
13 *3:30 *12:42 0.00604096
14 *3:30 *20:12 9.97899e-05
15 *3:30 *24:18 0.0107062
16 *3:30 *26:32 0
17 *3:30 *29:38 0.00186101
18 *3:30 *751:17 0.000220063
19 *3:30 *751:19 0.000872331
*RES
1 analog_io[11] *3:6 578.562 
2 *3:6 *3:8 0.5 
3 *3:8 *3:10 125.665 
4 *3:10 *3:30 49.9141 
5 *3:30 *792:vbpb 1.66625 
*END

*D_NET *4 0.375837
*CONN
*P analog_io[12] I
*I *792:vbpc I *D CF_BUF_HIZ
*CAP
1 analog_io[12] 0.00075561
2 *792:vbpc 0
3 *4:34 0.00684499
4 *4:18 0.0427979
5 *4:16 0.0359529
6 *4:14 0.0952321
7 *4:12 0.0959877
8 *4:12 *29:10 0.000276853
9 *4:18 *793:pd 0.000460216
10 *4:18 *793:boost 0.00133209
11 *4:18 *7:12 0.010511
12 *4:18 *22:14 0
13 *4:18 *24:18 0.065772
14 *4:34 *5:28 0.000897852
15 *4:34 *7:18 0.00794894
16 *4:34 *19:20 0.000209221
17 *4:34 *29:56 0
18 *4:34 *759:15 0.000195526
19 *2:42 *4:34 0.0106617
*RES
1 analog_io[12] *4:12 3.5326 
2 *4:12 *4:14 578.105 
3 *4:14 *4:16 0.5 
4 *4:16 *4:18 112.139 
5 *4:18 *4:34 27.2537 
6 *4:34 *792:vbpc 0.5 
*END

*D_NET *5 0.342794
*CONN
*P analog_io[13] I
*I *792:vbnc I *D CF_BUF_HIZ
*CAP
1 analog_io[13] 0.0959516
2 *792:vbnc 0
3 *5:28 0.011309
4 *5:14 0.0357076
5 *5:12 0.0267264
6 *5:6 0.0982794
7 *5:12 *22:14 0
8 *5:14 *18:32 0.01829
9 *5:14 *22:14 0
10 *5:14 *26:18 0.0112211
11 *5:14 *650:13 0
12 *5:28 *13:20 0.000512103
13 *5:28 *18:26 0.00203003
14 *5:28 *18:32 4.509e-05
15 *5:28 *663:17 0
16 *2:28 *5:12 0.00317601
17 *2:28 *5:14 0.00802382
18 *2:30 *5:14 0.0284565
19 *2:42 *5:14 4.85593e-05
20 *2:42 *5:28 0.0021189
21 *4:34 *5:28 0.000897852
*RES
1 analog_io[13] *5:6 582.302 
2 *5:6 *5:12 6.40176 
3 *5:12 *5:14 73.9534 
4 *5:14 *5:28 25.32 
5 *5:28 *792:vbnc 0.5 
*END

*D_NET *6 0.307158
*CONN
*P analog_io[14] I
*I *792:vbpci I *D CF_BUF_HIZ
*CAP
1 analog_io[14] 0.0951847
2 *792:vbpci 7.68603e-05
3 *6:26 0.0015875
4 *6:22 0.0185284
5 *6:20 0.0188936
6 *6:16 0.0202241
7 *6:6 0.113533
8 *792:vbpci *10:20 1.57309e-05
9 *6:16 *791:finetune 3.39619e-05
10 *6:16 *791:trimTC[6] 0.00132714
11 *6:16 *12:14 0.0204585
12 *6:16 *12:28 0.000759402
13 *6:16 *12:42 0.00232648
14 *6:16 *29:38 0.00280217
15 *6:20 *12:42 0.00076488
16 *6:20 *29:50 0.000881135
17 *6:20 *751:17 0
18 *6:22 *648:25 0.00971997
19 *3:10 *6:16 1.61792e-05
20 *3:30 *6:16 2.43296e-05
*RES
1 analog_io[14] *6:6 577.883 
2 *6:6 *6:16 49.5075 
3 *6:16 *6:20 35.57 
4 *6:20 *6:22 101.723 
5 *6:22 *6:26 3.11838 
6 *6:26 *792:vbpci 1.74125 
*END

*D_NET *7 0.275527
*CONN
*P analog_io[15] I
*I *792:vbnci I *D CF_BUF_HIZ
*CAP
1 analog_io[15] 0.0955015
2 *792:vbnci 0
3 *7:18 0.010876
4 *7:12 0.0165645
5 *7:6 0.10119
6 *7:6 *793:pd 0.000216897
7 *7:12 *22:14 0.00148079
8 *7:12 *24:18 0.000130931
9 *7:12 *25:16 0.0122213
10 *7:18 *29:56 0.0147935
11 *2:42 *7:18 0.00409137
12 *4:18 *7:12 0.010511
13 *4:34 *7:18 0.00794894
*RES
1 analog_io[15] *7:6 579.922 
2 *7:6 *7:12 26.6545 
3 *7:12 *7:18 38.2461 
4 *7:18 *792:vbnci 1 
*END

*D_NET *8 0.259059
*CONN
*P analog_io[16] I
*I *792:vbpcis I *D CF_BUF_HIZ
*CAP
1 analog_io[16] 0.00129414
2 *792:vbpcis 3.89454e-05
3 *8:18 0.00159098
4 *8:14 0.120603
5 *8:12 0.120345
6 *8:14 *781:34 0.0151505
7 *8:18 *29:56 3.57295e-05
*RES
1 analog_io[16] *8:12 6.66207 
2 *8:12 *8:14 241.211 
3 *8:14 *8:18 3.43052 
4 *8:18 *792:vbpcis 1.0625 
*END

*D_NET *9 0.26031
*CONN
*P analog_io[17] I
*I *792:vbncis I *D CF_BUF_HIZ
*CAP
1 analog_io[17] 0.000136435
2 *792:vbncis 3.3469e-05
3 *9:24 0.00753973
4 *9:22 0.0326414
5 *9:12 0.116322
6 *9:10 0.0913232
7 *9:12 *17:12 0.0123139
*RES
1 analog_io[17] *9:10 0.762381 
2 *9:10 *9:12 582.355 
3 *9:12 *9:22 48.563 
4 *9:22 *9:24 13.3769 
5 *9:24 *792:vbncis 0.9575 
*END

*D_NET *10 0.253807
*CONN
*P analog_io[18] I
*I *792:vbpcid I *D CF_BUF_HIZ
*CAP
1 analog_io[18] 0.00102635
2 *792:vbpcid 6.53117e-05
3 *10:24 0.000606091
4 *10:20 0.0116591
5 *10:18 0.0264272
6 *10:12 0.101068
7 *10:10 0.0867852
8 *792:vbpcid *792:vbptd 4.22789e-05
9 *10:18 *780:16 0.00332904
10 *10:20 *11:20 0.0125158
11 *10:20 *769:25 0.00931744
12 *10:24 *792:vbptd 7.02588e-05
13 *10:24 *11:20 0.000169516
14 *10:24 *11:28 0.000336682
15 *10:24 *769:25 0.000373339
16 *792:vbpci *10:20 1.57309e-05
*RES
1 analog_io[18] *10:10 2.26067 
2 *10:10 *10:12 520.645 
3 *10:12 *10:18 31.0037 
4 *10:18 *10:20 95.7 
5 *10:20 *10:24 4.42875 
6 *10:24 *792:vbpcid 1.4325 
*END

*D_NET *11 0.228073
*CONN
*P analog_io[19] I
*I *792:vbptd I *D CF_BUF_HIZ
*CAP
1 analog_io[19] 0.00359254
2 *792:vbptd 6.81459e-05
3 *11:28 0.000410053
4 *11:20 0.0111529
5 *11:18 0.0231592
6 *11:12 0.0880048
7 *11:10 0.0792491
8 *11:18 *19:20 0
9 *11:18 *759:15 0
10 *11:18 *773:19 0.00432044
11 *11:20 *769:25 0.00476511
12 *11:28 *769:25 0.000216174
13 *792:vbpcid *792:vbptd 4.22789e-05
14 *10:20 *11:20 0.0125158
15 *10:24 *792:vbptd 7.02588e-05
16 *10:24 *11:20 0.000169516
17 *10:24 *11:28 0.000336682
*RES
1 analog_io[19] *11:10 7.04867 
2 *11:10 *11:12 459.275 
3 *11:12 *11:18 26.1343 
4 *11:18 *11:20 94.2425 
5 *11:20 *11:28 7.81 
6 *11:28 *792:vbptd 2.10375 
*END

*D_NET *12 0.393812
*CONN
*P analog_io[1] I
*I *792:vinp_p I *D CF_BUF_HIZ
*CAP
1 analog_io[1] 0.000223187
2 *792:vinp_p 3.1769e-05
3 *12:48 0.000271902
4 *12:42 0.0201428
5 *12:28 0.0222129
6 *12:14 0.0845221
7 *12:12 0.0822119
8 *12:10 0.0137272
9 *12:8 0.0139504
10 *792:vinp_p *792:vinn_na 5.81186e-05
11 *12:10 *22:10 0.0166808
12 *12:14 *24:14 0.0287152
13 *12:14 *670:21 0.00305157
14 *12:28 *29:38 0.000150442
15 *12:28 *29:50 7.52511e-05
16 *12:28 *751:19 0
17 *12:42 *791:mux2sel 3.14229e-05
18 *12:42 *791:pd 0.000189259
19 *12:42 *791:inl_ctrl[0] 3.51138e-05
20 *12:42 *791:inl_ctrl[5] 0
21 *12:42 *24:18 0.00142259
22 *12:42 *26:42 0.00242362
23 *12:42 *29:50 0.00326548
24 *12:42 *663:13 0.000566808
25 *12:42 *743:37 9.034e-05
26 *12:42 *751:19 0.000809317
27 *12:48 *792:vinp_n 0
28 *12:48 *792:vinn_n 3.48364e-05
29 *12:48 *24:38 7.99796e-05
30 *12:48 *26:42 8.24935e-05
31 *3:10 *12:14 0.0684048
32 *3:30 *12:42 0.00604096
33 *6:16 *12:14 0.0204585
34 *6:16 *12:28 0.000759402
35 *6:16 *12:42 0.00232648
36 *6:20 *12:42 0.00076488
*RES
1 analog_io[1] *12:8 0.872762 
2 *12:8 *12:10 121.995 
3 *12:10 *12:12 0.5 
4 *12:12 *12:14 216.748 
5 *12:14 *12:28 44.035 
6 *12:28 *12:42 49.1635 
7 *12:42 *12:48 6.2525 
8 *12:48 *792:vinp_p 0.945 
*END

*D_NET *13 0.282617
*CONN
*P analog_io[20] I
*I *789:vinm I *D CF_ADC_SAR12
*CAP
1 analog_io[20] 0.00441704
2 *789:vinm 8.56057e-05
3 *13:20 0.0394103
4 *13:18 0.0393247
5 *13:16 0.0955494
6 *13:14 0.0999664
7 *789:vinm *789:vreflo 0
8 *13:20 *789:vreflo 0
9 *13:20 *659:32 0.0033515
10 *13:20 *663:17 0
11 *5:28 *13:20 0.000512103
*RES
1 analog_io[20] *13:14 8.58043 
2 *13:14 *13:16 156.308 
3 *13:16 *13:18 0.5 
4 *13:18 *13:20 74.5985 
5 *13:20 *789:vinm 0.2812 
*END

*D_NET *14 0.282178
*CONN
*P analog_io[21] I
*I *790:refout O *D CF_ADC_SAR12_sar_refs
*CAP
1 analog_io[21] 0.00179239
2 *790:refout 0.000165947
3 *14:22 0.0513257
4 *14:20 0.0495333
5 *14:18 0.0823582
6 *14:16 0.0893781
7 *14:5 0.00718586
8 *14:16 *659:114 0.000417537
9 *14:16 *661:20 2.10589e-05
*RES
1 *790:refout *14:5 0.409767 
2 *14:5 *14:16 14.9514 
3 *14:16 *14:18 160.308 
4 *14:18 *14:20 0.5 
5 *14:20 *14:22 93.3479 
6 *14:22 analog_io[21] 3.21462 
*END

*D_NET *15 0.211865
*CONN
*P analog_io[22] I
*I *789:vreflo I *D CF_ADC_SAR12
*CAP
1 analog_io[22] 0.00179239
2 *789:vreflo 0.000185369
3 *15:22 0.00049789
4 *15:16 0.0541197
5 *15:14 0.0538072
6 *15:12 0.0418383
7 *15:10 0.0436307
8 *789:vreflo *659:65 0
9 *15:16 *655:19 9.11742e-05
10 *15:16 *657:12 0.00756892
11 *15:16 *691:9 0.00808421
12 *15:22 *659:57 0.000209211
13 *15:22 *659:65 4.02177e-05
14 *789:vinm *789:vreflo 0
15 *13:20 *789:vreflo 0
*RES
1 analog_io[22] *15:10 3.21462 
2 *15:10 *15:12 78.9477 
3 *15:12 *15:14 0.5 
4 *15:14 *15:16 108.258 
5 *15:16 *15:22 1.19848 
6 *15:22 *789:vreflo 0.583933 
*END

*D_NET *17 0.0429195
*CONN
*P analog_io[24] I
*I *791:dft_curr_in I *D CF_BGR
*CAP
1 analog_io[24] 0.000317088
2 *791:dft_curr_in 9.699e-05
3 *17:18 0.00485262
4 *17:12 0.0148841
5 *17:10 0.0104456
6 *791:dft_curr_in *659:11 9.18833e-06
7 *9:12 *17:12 0.0123139
*RES
1 analog_io[24] *17:10 0.948762 
2 *17:10 *17:12 90.035 
3 *17:12 *17:18 9.73638 
4 *17:18 *791:dft_curr_in 1.9425 
*END

*D_NET *18 0.199422
*CONN
*P analog_io[25] I
*I *790:vdda I *D CF_ADC_SAR12_sar_refs
*I *789:vdda I *D CF_ADC_SAR12
*CAP
1 analog_io[25] 0.00291803
2 *790:vdda 0
3 *789:vdda 0.000125233
4 *18:67 0.0142555
5 *18:65 0.0294627
6 *18:46 0.0152628
7 *18:32 0.00874225
8 *18:26 0.0220677
9 *18:12 0.0220472
10 *18:10 0.0115701
11 *18:26 *791:CurrAbsTrim[2] 0
12 *18:26 *23:20 0.00710477
13 *18:26 *26:18 0.00237381
14 *18:26 *650:13 0.000637881
15 *18:32 *793:ch_cont 0.00356403
16 *18:32 *23:20 0.00831573
17 *18:32 *26:18 0.0132893
18 *18:32 *650:13 0.0029801
19 *18:65 *789:sample_width[4] 0.003693
20 *18:65 *789:sample_width[7] 0
21 *18:65 *658:9 0.003693
22 *18:65 *703:9 0.00198765
23 *18:65 *716:9 0.00149419
24 *18:67 *20:24 0.00334411
25 *2:42 *18:26 0.00012749
26 *5:14 *18:32 0.01829
27 *5:28 *18:26 0.00203003
28 *5:28 *18:32 4.509e-05
*RES
1 analog_io[25] *18:10 5.8001 
2 *18:10 *18:12 52.465 
3 *18:12 *18:26 29.5257 
4 *18:26 *18:32 35.7396 
5 *18:32 *789:vdda 1.455 
6 *789:vdda *18:46 1.455 
7 *18:46 *18:65 37.0215 
8 *18:65 *18:67 26.0626 
9 *18:67 *790:vdda 0.5 
*END

*D_NET *19 0.207279
*CONN
*P analog_io[26] I
*I *790:vssa I *D CF_ADC_SAR12_sar_refs
*I *790:vssa_shield I *D CF_ADC_SAR12_sar_refs
*I *789:vssa I *D CF_ADC_SAR12
*CAP
1 analog_io[26] 0.0171971
2 *790:vssa 6.73368e-05
3 *790:vssa_shield 0.000143172
4 *789:vssa 0.0034105
5 *19:89 0.00372205
6 *19:79 0.0284588
7 *19:70 0.0248725
8 *19:54 0.0203537
9 *19:30 0.0377064
10 *19:24 0.0312979
11 *19:20 0.034478
12 *789:vssa *776:11 0
13 *789:vssa *776:19 0.00135594
14 *789:vssa *787:17 0
15 *789:vssa *787:35 0
16 *790:vssa_shield *790:S_LV[5] 8.28122e-05
17 *19:20 *759:15 0.00329277
18 *19:24 *763:17 0
19 *19:24 *769:25 0
20 *19:30 *776:19 4.56317e-05
21 *19:54 *790:S_LV[7] 0
22 *19:54 *790:S_LV[5] 0.000585079
23 *4:34 *19:20 0.000209221
24 *11:18 *19:20 0
*RES
1 analog_io[26] *19:20 35.4801 
2 *19:20 *19:24 33.5148 
3 *19:24 *19:30 24.4002 
4 *19:30 *789:vssa 7.94924 
5 *19:30 *19:54 37.2156 
6 *19:54 *790:vssa_shield 1.995 
7 *790:vssa_shield *19:70 0.2033 
8 *19:70 *19:79 45.6105 
9 *19:79 *19:89 8.39748 
10 *19:89 *790:vssa 1.4325 
*END

*D_NET *20 0.140455
*CONN
*P analog_io[27] I
*I *789:VPUMP I *D CF_ADC_SAR12
*I *790:VPUMP I *D CF_ADC_SAR12_sar_refs
*CAP
1 analog_io[27] 0.00175862
2 *789:VPUMP 0
3 *790:VPUMP 0
4 *20:38 0.0133651
5 *20:24 0.0245804
6 *20:14 0.0379456
7 *20:12 0.0285878
8 *20:10 0.0303464
9 *20:24 *790:dft_comp_en 0.000427124
10 *20:24 *671:19 0
11 *20:24 *776:21 0
12 *20:38 *671:19 0
13 *20:38 *776:21 0
14 *3:30 *20:12 9.97899e-05
15 *18:67 *20:24 0.00334411
*RES
1 analog_io[27] *20:10 3.21462 
2 *20:10 *20:12 53.4769 
3 *20:12 *20:14 0.5 
4 *20:14 *20:24 49.4247 
5 *20:24 *790:VPUMP 0.5 
6 *20:14 *20:38 26.0372 
7 *20:38 *789:VPUMP 0.5 
*END

*D_NET *22 0.377819
*CONN
*P analog_io[2] I
*I *792:vinn_p I *D CF_BUF_HIZ
*CAP
1 analog_io[2] 0.000138351
2 *792:vinn_p 0
3 *22:30 0.0133
4 *22:14 0.123458
5 *22:12 0.110158
6 *22:10 0.0151986
7 *22:8 0.0153369
8 *22:10 *24:10 0.0258585
9 *22:10 *26:14 0
10 *22:14 *791:trimTC[5] 0.00251119
11 *22:14 *791:trimTC[4] 0.000859531
12 *22:14 *793:pd 0.000207396
13 *22:14 *793:boost 0.000574431
14 *22:14 *24:14 0
15 *22:14 *24:18 0
16 *22:14 *25:16 0.00713208
17 *22:14 *650:13 0.0154599
18 *22:14 *670:19 0.00020824
19 *22:30 *792:clk2_boost 4.74658e-05
20 *22:30 *792:e_n_boost 0
21 *22:30 *23:36 6.44208e-05
22 *22:30 *24:38 0.0104801
23 *22:30 *25:16 0.0075166
24 *22:30 *25:28 2.98725e-05
25 *22:30 *26:42 0.00087706
26 *22:30 *650:13 0.0102407
27 *4:18 *22:14 0
28 *5:12 *22:14 0
29 *5:14 *22:14 0
30 *7:12 *22:14 0.00148079
31 *12:10 *22:10 0.0166808
*RES
1 analog_io[2] *22:8 0.747905 
2 *22:8 *22:10 190.845 
3 *22:10 *22:12 0.5 
4 *22:12 *22:14 225.717 
5 *22:14 *22:30 43.9835 
6 *22:30 *792:vinn_p 2 
*END

*D_NET *23 0.395011
*CONN
*P analog_io[3] I
*I *792:vinp_n I *D CF_BUF_HIZ
*CAP
1 analog_io[3] 0.114026
2 *792:vinp_n 9.05724e-05
3 *23:36 0.00857242
4 *23:20 0.0168406
5 *23:10 0.0376311
6 *23:8 0.0292723
7 *23:6 0.114026
8 *792:vinp_n *792:clk2_boost 3.29218e-06
9 *792:vinp_n *792:vinn_n 2.45311e-05
10 *792:vinp_n *792:e_n_boost 4.71087e-05
11 *23:10 *793:ch_cont 6.70934e-06
12 *23:10 *29:14 0.0348272
13 *23:20 *650:13 0.0141559
14 *23:36 *792:e_n_boost 2.06886e-05
15 *23:36 *24:38 0
16 *23:36 *25:28 0.00998092
17 *12:48 *792:vinp_n 0
18 *18:26 *23:20 0.00710477
19 *18:32 *23:20 0.00831573
20 *22:30 *23:36 6.44208e-05
*RES
1 analog_io[3] *23:6 214.877 
2 *23:6 *23:8 0.5 
3 *23:8 *23:10 257.995 
4 *23:10 *23:20 31.7863 
5 *23:20 *23:36 25.2463 
6 *23:36 *792:vinp_n 1.80375 
*END

*D_NET *24 0.463856
*CONN
*P analog_io[4] I
*I *792:vinn_n I *D CF_BUF_HIZ
*CAP
1 analog_io[4] 6.85387e-05
2 *792:vinn_n 5.55423e-05
3 *24:38 0.00965613
4 *24:18 0.0472826
5 *24:16 0.0377304
6 *24:14 0.0375918
7 *24:12 0.0375433
8 *24:10 0.0263414
9 *24:8 0.02641
10 *792:vinn_n *792:vinn_na 1.68831e-05
11 *24:10 *26:14 0.0440025
12 *24:18 *25:16 0
13 *24:38 *792:tp 0.000181315
14 *24:38 *792:clk2_boost 0.000512556
15 *24:38 *25:16 0
16 *24:38 *743:37 4.89258e-05
17 *792:vinp_n *792:vinn_n 2.45311e-05
18 *3:10 *24:14 0.0019271
19 *3:10 *24:18 0.0512624
20 *3:30 *24:18 0.0107062
21 *4:18 *24:18 0.065772
22 *7:12 *24:18 0.000130931
23 *12:14 *24:14 0.0287152
24 *12:42 *24:18 0.00142259
25 *12:48 *792:vinn_n 3.48364e-05
26 *12:48 *24:38 7.99796e-05
27 *22:10 *24:10 0.0258585
28 *22:14 *24:14 0
29 *22:14 *24:18 0
30 *22:30 *24:38 0.0104801
31 *23:36 *24:38 0
*RES
1 analog_io[4] *24:8 0.623048 
2 *24:8 *24:10 321.915 
3 *24:10 *24:12 0.5 
4 *24:12 *24:14 94.7421 
5 *24:14 *24:16 0.0995238 
6 *24:16 *24:18 148.618 
7 *24:18 *24:38 30.627 
8 *24:38 *792:vinn_n 1.5675 
*END

*D_NET *25 0.443026
*CONN
*P analog_io[5] I
*I *792:vinp_na I *D CF_BUF_HIZ
*CAP
1 analog_io[5] 0.120908
2 *792:vinp_na 0
3 *25:28 0.0084095
4 *25:16 0.0173271
5 *25:10 0.0719366
6 *25:8 0.063019
7 *25:6 0.120908
8 *25:16 *650:13 0.000317943
9 *25:28 *792:e_n_boost 7.02321e-05
10 *1:12 *25:10 0.00324813
11 *7:12 *25:16 0.0122213
12 *22:14 *25:16 0.00713208
13 *22:30 *25:16 0.0075166
14 *22:30 *25:28 2.98725e-05
15 *23:36 *25:28 0.00998092
16 *24:18 *25:16 0
17 *24:38 *25:16 0
*RES
1 analog_io[5] *25:6 213.754 
2 *25:6 *25:8 0.5 
3 *25:8 *25:10 389.745 
4 *25:10 *25:16 32.939 
5 *25:16 *25:28 23.7343 
6 *25:28 *792:vinp_na 2 
*END

*D_NET *26 0.443346
*CONN
*P analog_io[6] I
*I *792:vinn_na I *D CF_BUF_HIZ
*CAP
1 analog_io[6] 0.00172919
2 *792:vinn_na 3.62328e-05
3 *26:42 0.00299594
4 *26:32 0.0141263
5 *26:18 0.121402
6 *26:16 0.110235
7 *26:14 0.0569228
8 *26:12 0.0586519
9 *26:18 *749:23 0
10 *26:32 *766:25 0
11 *26:32 *772:21 0.000344354
12 *26:32 *781:34 0
13 *26:42 *792:clk2_boost 0.00238033
14 *26:42 *792:e_n_boost 0.000176023
15 *792:vinn_n *792:vinn_na 1.68831e-05
16 *792:vinp_p *792:vinn_na 5.81186e-05
17 *3:30 *26:32 0
18 *5:14 *26:18 0.0112211
19 *12:42 *26:42 0.00242362
20 *12:48 *26:42 8.24935e-05
21 *18:26 *26:18 0.00237381
22 *18:32 *26:18 0.0132893
23 *22:10 *26:14 0
24 *22:30 *26:42 0.00087706
25 *24:10 *26:14 0.0440025
*RES
1 analog_io[6] *26:12 10.8898 
2 *26:12 *26:14 447.763 
3 *26:14 *26:16 2 
4 *26:16 *26:18 1955.91 
5 *26:18 *26:32 44.8692 
6 *26:32 *26:42 12.7587 
7 *26:42 *792:vinn_na 0.9375 
*END

*D_NET *27 0.374872
*CONN
*P analog_io[7] I
*I *793:ch1 I *D CF_REFBUF
*I *793:ch2 I *D CF_REFBUF
*I *793:out O *D CF_REFBUF
*CAP
1 analog_io[7] 0.106722
2 *793:ch1 4.80962e-05
3 *793:ch2 4.63471e-05
4 *793:out 6.76845e-05
5 *27:52 0.106722
6 *27:50 0.0779845
7 *27:31 0.000173054
8 *27:26 0.000190458
9 *27:24 0.000132961
10 *27:20 0.00218244
11 *27:10 0.0803407
12 *27:5 0.000262516
*RES
1 *793:out *27:5 1.455 
2 *27:5 *27:10 1.125 
3 *27:10 *27:20 40.175 
4 *27:20 *27:24 0.36 
5 *27:24 *27:26 1.14 
6 *27:26 *27:31 2.175 
7 *27:31 *793:ch2 2.69 
8 *27:24 *793:ch1 0.8175 
9 *27:10 *27:50 473.427 
10 *27:50 *27:52 0.5 
11 *27:52 analog_io[7] 201.434 
*END

*D_NET *28 0.409195
*CONN
*P analog_io[8] I
*I *793:vpwre I *D CF_REFBUF
*I *793:ng I *D CF_REFBUF
*CAP
1 analog_io[8] 0.0876113
2 *793:vpwre 6.6499e-05
3 *793:ng 0.000131369
4 *28:35 0.00379625
5 *28:16 0.00522179
6 *28:14 0.00895926
7 *28:10 0.107968
8 *28:8 0.107829
9 *28:6 0.0876113
*RES
1 analog_io[8] *28:6 531.982 
2 *28:6 *28:8 0.5 
3 *28:8 *28:10 190.653 
4 *28:10 *28:14 1.285 
5 *28:14 *28:16 30.9175 
6 *28:16 *793:ng 2.595 
7 *28:14 *28:35 7.27124 
8 *28:35 *793:vpwre 1.5725 
*END

*D_NET *29 0.468059
*CONN
*P analog_io[9] I
*I *792:vbpt I *D CF_BUF_HIZ
*CAP
1 analog_io[9] 9.81783e-05
2 *792:vbpt 0
3 *29:56 0.0172745
4 *29:50 0.0229597
5 *29:38 0.00781062
6 *29:14 0.0839877
7 *29:12 0.0818623
8 *29:10 0.0965446
9 *29:8 0.0966427
10 *29:38 *670:21 0.000694725
11 *29:38 *751:19 0.00116927
12 *29:50 *751:19 0
13 *2:16 *29:10 2.62621e-05
14 *3:10 *29:38 1.95055e-05
15 *3:30 *29:38 0.00186101
16 *4:12 *29:10 0.000276853
17 *4:34 *29:56 0
18 *6:16 *29:38 0.00280217
19 *6:20 *29:50 0.000881135
20 *7:18 *29:56 0.0147935
21 *8:18 *29:56 3.57295e-05
22 *12:28 *29:38 0.000150442
23 *12:28 *29:50 7.52511e-05
24 *12:42 *29:50 0.00326548
25 *23:10 *29:14 0.0348272
*RES
1 analog_io[9] *29:8 1.0625 
2 *29:8 *29:10 182.205 
3 *29:10 *29:12 0.5 
4 *29:12 *29:14 577.722 
5 *29:14 *29:38 30.6638 
6 *29:38 *29:50 49.2281 
7 *29:50 *29:56 34.3128 
8 *29:56 *792:vbpt 0.5 
*END

*D_NET *528 0.334402
*CONN
*P user_clock2 I
*I *789:refclk I *D CF_ADC_SAR12
*CAP
1 user_clock2 4.08978e-05
2 *789:refclk 0.000434427
3 *528:13 0.0473947
4 *528:11 0.0469603
5 *528:9 0.108352
6 *528:7 0.108393
7 *789:refclk *789:trimunit 0.000571232
8 *789:refclk *789:enable_hv 0.000670702
9 *789:refclk *646:9 0.000647737
10 *789:refclk *648:9 0.000365566
11 *528:13 *671:19 0
12 *528:13 *695:9 0.0205712
*RES
1 user_clock2 *528:7 1.2425 
2 *528:7 *528:9 286.331 
3 *528:9 *528:11 0.5 
4 *528:11 *528:13 149.91 
5 *528:13 *789:refclk 3.8729 
*END

*D_NET *540 0.0117257
*CONN
*P wb_clk_i I
*I *788:wb_clk_i I *D afe_wb
*CAP
1 wb_clk_i 0.00146488
2 *788:wb_clk_i 0.00057928
3 *540:17 0.00396256
4 *540:9 0.00484816
5 *788:wb_clk_i *788:wb_rst_i 0
6 *788:wb_clk_i *575:11 0.000534802
7 *788:wb_clk_i *644:11 0
8 *540:17 *788:wb_rst_i 0.000335986
*RES
1 wb_clk_i *540:9 26.7525 
2 *540:9 *540:17 49.8219 
3 *540:17 *788:wb_clk_i 14.3325 
*END

*D_NET *541 0.0118197
*CONN
*P wb_rst_i I
*I *788:wb_rst_i I *D afe_wb
*CAP
1 wb_rst_i 0.00146584
2 *788:wb_rst_i 0.00127959
3 *541:13 0.00405032
4 *541:9 0.00423656
5 *788:wb_rst_i *542:11 0
6 *788:wb_rst_i *644:11 0.000451355
7 *788:wb_clk_i *788:wb_rst_i 0
8 *540:17 *788:wb_rst_i 0.000335986
*RES
1 wb_rst_i *541:9 26.7525 
2 *541:9 *541:13 48.935 
3 *541:13 *788:wb_rst_i 14.9864 
*END

*D_NET *542 0.0113652
*CONN
*P wbs_ack_o O
*I *788:wbs_ack_o O *D afe_wb
*CAP
1 wbs_ack_o 0.00145907
2 *788:wbs_ack_o 0.000929837
3 *542:13 0.00463147
4 *542:11 0.00410224
5 *542:11 *788:wbs_cyc_i 0
6 *542:11 *788:wbs_stb_i 0.000242555
7 *542:11 *645:7 0
8 *788:wb_rst_i *542:11 0
*RES
1 *788:wbs_ack_o *542:11 6.01503 
2 *542:11 *542:13 57.615 
3 *542:13 wbs_ack_o 26.9625 
*END

*D_NET *543 0.00990899
*CONN
*P wbs_adr_i[0] I
*I *788:wbs_adr_i[0] I *D afe_wb
*CAP
1 wbs_adr_i[0] 0.00160821
2 *788:wbs_adr_i[0] 0.000670542
3 *543:21 0.0033444
4 *543:17 0.00428207
5 *788:wbs_adr_i[0] *788:wbs_dat_i[0] 0
6 *543:17 *576:9 0
7 *543:21 *788:wbs_dat_i[0] 0
8 *543:21 *576:9 3.75882e-06
*RES
1 wbs_adr_i[0] *543:17 28.0801 
2 *543:17 *543:21 48.885 
3 *543:21 *788:wbs_adr_i[0] 12.2925 
*END

*D_NET *544 0.0176556
*CONN
*P wbs_adr_i[10] I
*I *788:wbs_adr_i[10] I *D afe_wb
*CAP
1 wbs_adr_i[10] 0.00262567
2 *788:wbs_adr_i[10] 0.0013478
3 *544:13 0.00479933
4 *544:11 0.0060772
5 *788:wbs_adr_i[10] *788:wbs_dat_i[10] 0
6 *788:wbs_adr_i[10] *571:17 0.00015207
7 *788:wbs_adr_i[10] *639:5 0
8 *544:11 wbs_dat_o[14] 0.00150993
9 *544:11 *578:13 0.000598638
10 *544:11 *580:13 0.000380377
11 *544:11 *581:11 0.000164547
12 *544:13 *788:wbs_dat_i[10] 0
13 *544:13 *571:9 0
14 *544:13 *571:17 0
15 *544:13 *604:9 0
*RES
1 wbs_adr_i[10] *544:11 11.0357 
2 *544:11 *544:13 61.95 
3 *544:13 *788:wbs_adr_i[10] 25.1925 
*END

*D_NET *545 0.0208244
*CONN
*P wbs_adr_i[11] I
*I *788:wbs_adr_i[11] I *D afe_wb
*CAP
1 wbs_adr_i[11] 0.00154564
2 *788:wbs_adr_i[11] 0.00109951
3 *545:17 0.00772224
4 *545:9 0.00816837
5 *788:wbs_adr_i[11] *788:wbs_dat_i[11] 0
6 *788:wbs_adr_i[11] *609:5 0
7 *788:wbs_adr_i[11] *636:15 0.000500093
8 *545:17 *788:wbs_adr_i[18] 0.0017886
9 *545:17 *788:wbs_adr_i[7] 0
10 *545:17 *788:wbs_dat_i[18] 0
11 *545:17 *616:7 0
*RES
1 wbs_adr_i[11] *545:9 26.7525 
2 *545:9 *545:17 49.5135 
3 *545:17 *788:wbs_adr_i[11] 21.9825 
*END

*D_NET *546 0.0243464
*CONN
*P wbs_adr_i[12] I
*I *788:wbs_adr_i[12] I *D afe_wb
*CAP
1 wbs_adr_i[12] 0.00234061
2 *788:wbs_adr_i[12] 0.00447421
3 *546:13 0.00681482
4 *788:wbs_adr_i[12] *788:wbs_dat_i[12] 0
5 *788:wbs_adr_i[12] *605:13 9.45007e-05
6 *788:wbs_adr_i[12] *610:5 0
7 *546:13 wbs_dat_o[11] 0.0064353
8 *546:13 *547:13 0
9 *546:13 *549:13 0.00418696
10 *546:13 *578:13 0
11 *546:13 *582:13 0
*RES
1 wbs_adr_i[12] *546:13 18.7802 
2 *546:13 *788:wbs_adr_i[12] 79.1025 
*END

*D_NET *547 0.0229317
*CONN
*P wbs_adr_i[13] I
*I *788:wbs_adr_i[13] I *D afe_wb
*CAP
1 wbs_adr_i[13] 0.00315463
2 *788:wbs_adr_i[13] 0.00433564
3 *547:13 0.00749027
4 *788:wbs_adr_i[13] *788:wbs_dat_i[13] 0
5 *788:wbs_adr_i[13] *573:13 0.00140243
6 *788:wbs_adr_i[13] *611:7 0
7 *547:13 *549:13 0
8 *547:13 *578:13 0.00524382
9 *547:13 *580:13 0.00130496
10 *546:13 *547:13 0
*RES
1 wbs_adr_i[13] *547:13 15.006 
2 *547:13 *788:wbs_adr_i[13] 83.6925 
*END

*D_NET *548 0.0232914
*CONN
*P wbs_adr_i[14] I
*I *788:wbs_adr_i[14] I *D afe_wb
*CAP
1 wbs_adr_i[14] 0.00470388
2 *788:wbs_adr_i[14] 0.00319811
3 *548:13 0.00790199
4 *788:wbs_adr_i[14] wbs_dat_o[8] 0.000263319
5 *788:wbs_adr_i[14] *788:wbs_dat_i[14] 0
6 *788:wbs_adr_i[14] *612:5 0
7 *548:13 wbs_dat_o[13] 0.00409524
8 *548:13 wbs_dat_o[21] 0.000898692
9 *548:13 *788:wbs_adr_i[23] 0
10 *548:13 *788:wbs_dat_i[22] 0
11 *548:13 *550:13 0
12 *548:13 *577:13 0
13 *548:13 *622:5 0.0022302
*RES
1 wbs_adr_i[14] *548:13 41.6667 
2 *548:13 *788:wbs_adr_i[14] 58.1925 
*END

*D_NET *549 0.0236463
*CONN
*P wbs_adr_i[15] I
*I *788:wbs_adr_i[15] I *D afe_wb
*CAP
1 wbs_adr_i[15] 0.0040887
2 *788:wbs_adr_i[15] 0.00433521
3 *549:13 0.00842391
4 *788:wbs_adr_i[15] *788:wbs_dat_i[15] 0
5 *788:wbs_adr_i[15] *574:13 0
6 *788:wbs_adr_i[15] *607:13 0.000233813
7 *788:wbs_adr_i[15] *613:5 0
8 *549:13 wbs_dat_o[20] 7.7349e-05
9 *549:13 wbs_dat_o[22] 0
10 *549:13 *556:13 0.000105713
11 *549:13 *557:13 0.000154059
12 *549:13 *580:13 0
13 *549:13 *588:13 0
14 *549:13 *589:13 0.000263944
15 *549:13 *590:13 0.00177667
16 *546:13 *549:13 0.00418696
17 *547:13 *549:13 0
*RES
1 wbs_adr_i[15] *549:13 21.0624 
2 *549:13 *788:wbs_adr_i[15] 79.6125 
*END

*D_NET *550 0.0269264
*CONN
*P wbs_adr_i[16] I
*I *788:wbs_adr_i[16] I *D afe_wb
*CAP
1 wbs_adr_i[16] 0.00519757
2 *788:wbs_adr_i[16] 0.00348573
3 *550:13 0.00868329
4 *788:wbs_adr_i[16] *788:wbs_dat_i[16] 0
5 *788:wbs_adr_i[16] *614:5 0
6 *550:13 wbs_dat_o[21] 0
7 *550:13 wbs_dat_o[23] 0
8 *550:13 *577:13 0.000672032
9 *550:13 *583:13 0.00888779
10 *548:13 *550:13 0
*RES
1 wbs_adr_i[16] *550:13 38.426 
2 *550:13 *788:wbs_adr_i[16] 62.7825 
*END

*D_NET *551 0.0252613
*CONN
*P wbs_adr_i[17] I
*I *788:wbs_adr_i[17] I *D afe_wb
*CAP
1 wbs_adr_i[17] 0.00373651
2 *788:wbs_adr_i[17] 0.00494141
3 *551:11 0.00867792
4 *788:wbs_adr_i[17] wbs_dat_o[10] 0
5 *788:wbs_adr_i[17] *788:wbs_dat_i[17] 0
6 *788:wbs_adr_i[17] *577:13 0
7 *788:wbs_adr_i[17] *615:5 0
8 *551:11 wbs_dat_o[14] 0.00633369
9 *551:11 wbs_dat_o[24] 0.00083754
10 *551:11 wbs_dat_o[26] 0.000461958
11 *551:11 *558:13 0.000272261
*RES
1 wbs_adr_i[17] *551:11 16.7504 
2 *551:11 *788:wbs_adr_i[17] 86.2425 
*END

*D_NET *552 0.0283568
*CONN
*P wbs_adr_i[18] I
*I *788:wbs_adr_i[18] I *D afe_wb
*CAP
1 wbs_adr_i[18] 0.00239447
2 *788:wbs_adr_i[18] 0.00189258
3 *552:13 0.00607542
4 *552:9 0.00657732
5 *788:wbs_adr_i[18] *788:wbs_dat_i[18] 0
6 *788:wbs_adr_i[18] *616:7 0
7 *552:9 *788:wbs_adr_i[29] 0.000408511
8 *552:9 *628:11 0
9 *552:13 *560:13 0
10 *552:13 *584:13 0
11 *552:13 *586:13 0.00921985
12 *552:13 *594:13 0
13 *545:17 *788:wbs_adr_i[18] 0.0017886
*RES
1 wbs_adr_i[18] *552:9 44.6975 
2 *552:9 *552:13 16.0952 
3 *552:13 *788:wbs_adr_i[18] 41.8725 
*END

*D_NET *553 0.0295707
*CONN
*P wbs_adr_i[19] I
*I *788:wbs_adr_i[19] I *D afe_wb
*CAP
1 wbs_adr_i[19] 0.00552458
2 *788:wbs_adr_i[19] 0.00390167
3 *553:13 0.00942626
4 *788:wbs_adr_i[19] *788:wbs_dat_i[19] 0
5 *788:wbs_adr_i[19] *617:5 0
6 *553:13 wbs_dat_o[18] 0.0104508
7 *553:13 wbs_dat_o[19] 0
8 *553:13 *562:13 0
9 *553:13 *579:11 0.000267435
10 *553:13 *599:15 0
*RES
1 wbs_adr_i[19] *553:13 35.6619 
2 *553:13 *788:wbs_adr_i[19] 68.3925 
*END

*D_NET *554 0.00969703
*CONN
*P wbs_adr_i[1] I
*I *788:wbs_adr_i[1] I *D afe_wb
*CAP
1 wbs_adr_i[1] 4.08978e-05
2 *788:wbs_adr_i[1] 0.00144093
3 *554:7 0.00480762
4 *554:5 0.00340759
5 *788:wbs_adr_i[1] *788:wbs_dat_i[1] 0
*RES
1 wbs_adr_i[1] *554:5 0.7425 
2 *554:5 *554:7 61.44 
3 *554:7 *788:wbs_adr_i[1] 26.3325 
*END

*D_NET *555 0.0345576
*CONN
*P wbs_adr_i[20] I
*I *788:wbs_adr_i[20] I *D afe_wb
*CAP
1 wbs_adr_i[20] 0.00389549
2 *788:wbs_adr_i[20] 0.00402544
3 *555:13 0.00792094
4 *788:wbs_adr_i[20] *788:wbs_dat_i[20] 0
5 *788:wbs_adr_i[20] *579:9 0.000446479
6 *788:wbs_adr_i[20] *618:5 0
7 *555:13 wbs_dat_o[19] 0.0106664
8 *555:13 *582:13 0.00436382
9 *555:13 *588:13 0
10 *555:13 *596:13 0.00323908
*RES
1 wbs_adr_i[20] *555:13 31.1492 
2 *555:13 *788:wbs_adr_i[20] 73.4925 
*END

*D_NET *556 0.0377233
*CONN
*P wbs_adr_i[21] I
*I *788:wbs_adr_i[21] I *D afe_wb
*CAP
1 wbs_adr_i[21] 0.00264517
2 *788:wbs_adr_i[21] 0.00437419
3 *556:13 0.00701937
4 *788:wbs_adr_i[21] *788:wbs_dat_i[21] 0
5 *788:wbs_adr_i[21] *620:5 0
6 *556:13 wbs_dat_o[20] 0.0118108
7 *556:13 *589:13 0.0117681
8 *556:13 *596:13 0
9 *549:13 *556:13 0.000105713
*RES
1 wbs_adr_i[21] *556:13 28.2299 
2 *556:13 *788:wbs_adr_i[21] 77.5725 
*END

*D_NET *557 0.0389176
*CONN
*P wbs_adr_i[22] I
*I *788:wbs_adr_i[22] I *D afe_wb
*CAP
1 wbs_adr_i[22] 0.00286552
2 *788:wbs_adr_i[22] 0.00454316
3 *557:13 0.00740868
4 *788:wbs_adr_i[22] wbs_dat_o[13] 0
5 *788:wbs_adr_i[22] *788:wbs_dat_i[22] 0
6 *788:wbs_adr_i[22] *621:5 0
7 *557:13 *589:13 0.011619
8 *557:13 *590:13 0.0123273
9 *557:13 *596:13 0
10 *549:13 *557:13 0.000154059
*RES
1 wbs_adr_i[22] *557:13 28.0256 
2 *557:13 *788:wbs_adr_i[22] 78.5925 
*END

*D_NET *558 0.0401193
*CONN
*P wbs_adr_i[23] I
*I *788:wbs_adr_i[23] I *D afe_wb
*CAP
1 wbs_adr_i[23] 0.00254914
2 *788:wbs_adr_i[23] 0.00476853
3 *558:13 0.00731767
4 *788:wbs_adr_i[23] *788:wbs_dat_i[23] 0
5 *788:wbs_adr_i[23] *622:5 0
6 *558:13 wbs_dat_o[14] 0.000186218
7 *558:13 wbs_dat_o[22] 0.012774
8 *558:13 wbs_dat_o[24] 0.0119117
9 *558:13 *581:11 0.000132864
10 *558:13 *599:13 0.000206987
11 *548:13 *788:wbs_adr_i[23] 0
12 *551:11 *558:13 0.000272261
*RES
1 wbs_adr_i[23] *558:13 23.4592 
2 *558:13 *788:wbs_adr_i[23] 84.2025 
*END

*D_NET *559 0.0314082
*CONN
*P wbs_adr_i[24] I
*I *788:wbs_adr_i[24] I *D afe_wb
*CAP
1 wbs_adr_i[24] 0.000656967
2 *788:wbs_adr_i[24] 0.00822067
3 *559:11 0.0102867
4 *559:9 0.00272297
5 *788:wbs_adr_i[24] *788:wbs_adr_i[28] 0
6 *788:wbs_adr_i[24] *788:wbs_adr_i[31] 0.00716863
7 *788:wbs_adr_i[24] *788:wbs_dat_i[24] 0
8 *788:wbs_adr_i[24] *600:15 0.000409631
9 *559:9 *592:9 0
10 *559:9 *600:15 0
11 *559:11 *592:9 0
12 *559:11 *600:15 0.00194262
*RES
1 wbs_adr_i[24] *559:9 10.8825 
2 *559:9 *559:11 51.855 
3 *559:11 *788:wbs_adr_i[24] 46.7334 
*END

*D_NET *560 0.0346046
*CONN
*P wbs_adr_i[25] I
*I *788:wbs_adr_i[25] I *D afe_wb
*CAP
1 wbs_adr_i[25] 0.0028124
2 *788:wbs_adr_i[25] 0.00205786
3 *560:13 0.00762439
4 *560:9 0.00837893
5 *788:wbs_adr_i[25] *788:wbs_dat_i[25] 0
6 *788:wbs_adr_i[25] *624:5 0
7 *560:9 wbs_dat_o[29] 0.000530213
8 *560:9 *627:13 0
9 *560:13 *593:17 0
10 *560:13 *594:13 0.0132008
11 *552:13 *560:13 0
*RES
1 wbs_adr_i[25] *560:9 49.2875 
2 *560:9 *560:13 22.0384 
3 *560:13 *788:wbs_adr_i[25] 37.2825 
*END

*D_NET *561 0.0271482
*CONN
*P wbs_adr_i[26] I
*I *788:wbs_adr_i[26] I *D afe_wb
*CAP
1 wbs_adr_i[26] 0.00150884
2 *788:wbs_adr_i[26] 0.00991869
3 *561:13 0.0120653
4 *561:9 0.00365541
5 *788:wbs_adr_i[26] *788:wbs_adr_i[31] 0
6 *788:wbs_adr_i[26] *788:wbs_dat_i[23] 0
7 *788:wbs_adr_i[26] *788:wbs_dat_i[26] 0
8 *788:wbs_adr_i[26] *625:11 0
*RES
1 wbs_adr_i[26] *561:9 26.2425 
2 *561:9 *561:13 39.245 
3 *561:13 *788:wbs_adr_i[26] 44.9532 
*END

*D_NET *562 0.0288751
*CONN
*P wbs_adr_i[27] I
*I *788:wbs_adr_i[27] I *D afe_wb
*CAP
1 wbs_adr_i[27] 0.0108681
2 *788:wbs_adr_i[27] 0.00356943
3 *562:13 0.0144376
4 *788:wbs_adr_i[27] *788:wbs_dat_i[27] 0
5 *788:wbs_adr_i[27] *626:5 0
6 *562:13 wbs_dat_o[18] 0
7 *562:13 wbs_dat_o[23] 0
8 *553:13 *562:13 0
*RES
1 wbs_adr_i[27] *562:13 47.2924 
2 *562:13 *788:wbs_adr_i[27] 63.2925 
*END

*D_NET *563 0.0290226
*CONN
*P wbs_adr_i[28] I
*I *788:wbs_adr_i[28] I *D afe_wb
*CAP
1 wbs_adr_i[28] 0.00148688
2 *788:wbs_adr_i[28] 0.0103193
3 *563:13 0.0130244
4 *563:9 0.00419199
5 *788:wbs_adr_i[28] *788:wbs_adr_i[31] 0
6 *788:wbs_adr_i[28] *788:wbs_dat_i[28] 0
7 *788:wbs_adr_i[28] *627:11 0
8 *563:9 wbs_dat_o[27] 0
9 *788:wbs_adr_i[24] *788:wbs_adr_i[28] 0
*RES
1 wbs_adr_i[28] *563:9 26.2425 
2 *563:9 *563:13 49.445 
3 *563:13 *788:wbs_adr_i[28] 36.4429 
*END

*D_NET *564 0.0292213
*CONN
*P wbs_adr_i[29] I
*I *788:wbs_adr_i[29] I *D afe_wb
*CAP
1 wbs_adr_i[29] 0.0019129
2 *788:wbs_adr_i[29] 0.00283389
3 *564:13 0.0124935
4 *564:9 0.0115725
5 *788:wbs_adr_i[29] *788:wbs_dat_i[29] 0
6 *788:wbs_adr_i[29] *628:9 0
7 *788:wbs_adr_i[29] *628:11 0
8 *564:13 wbs_dat_o[21] 0
9 *564:13 wbs_dat_o[23] 0
10 *564:13 *566:17 0
11 *564:13 *585:17 0
12 *552:9 *788:wbs_adr_i[29] 0.000408511
*RES
1 wbs_adr_i[29] *564:9 34.1675 
2 *564:9 *564:13 25.3013 
3 *564:13 *788:wbs_adr_i[29] 53.0925 
*END

*D_NET *565 0.0114823
*CONN
*P wbs_adr_i[2] I
*I *788:wbs_adr_i[2] I *D afe_wb
*CAP
1 wbs_adr_i[2] 0.00202664
2 *788:wbs_adr_i[2] 0.00300443
3 *565:13 0.00503107
4 *788:wbs_adr_i[2] *788:wbs_dat_i[2] 0
5 *788:wbs_adr_i[2] *788:wbs_sel_i[1] 0
6 *565:13 *788:wbs_adr_i[3] 0
7 *565:13 *788:wbs_sel_i[2] 0.0014202
8 *565:13 *630:5 0
9 *565:13 *641:13 0
*RES
1 wbs_adr_i[2] *565:13 34.1706 
2 *565:13 *788:wbs_adr_i[2] 54.6225 
*END

*D_NET *566 0.0308372
*CONN
*P wbs_adr_i[30] I
*I *788:wbs_adr_i[30] I *D afe_wb
*CAP
1 wbs_adr_i[30] 0.00223135
2 *788:wbs_adr_i[30] 0.00281334
3 *566:17 0.0131873
4 *566:13 0.0126053
5 *788:wbs_adr_i[30] *599:15 0
6 *566:13 *599:13 0
7 *566:17 *592:13 0
8 *564:13 *566:17 0
*RES
1 wbs_adr_i[30] *566:13 40.3325 
2 *566:13 *566:17 26.3501 
3 *566:17 *788:wbs_adr_i[30] 47.9925 
*END

*D_NET *567 0.0354382
*CONN
*P wbs_adr_i[31] I
*I *788:wbs_adr_i[31] I *D afe_wb
*CAP
1 wbs_adr_i[31] 0.00145162
2 *788:wbs_adr_i[31] 0.0101598
3 *567:13 0.0125654
4 *567:9 0.00385714
5 *788:wbs_adr_i[31] *788:wbs_dat_i[31] 0
6 *788:wbs_adr_i[31] *631:28 0.000235648
7 *788:wbs_adr_i[24] *788:wbs_adr_i[31] 0.00716863
8 *788:wbs_adr_i[26] *788:wbs_adr_i[31] 0
9 *788:wbs_adr_i[28] *788:wbs_adr_i[31] 0
*RES
1 wbs_adr_i[31] *567:9 26.2425 
2 *567:9 *567:13 44.345 
3 *567:13 *788:wbs_adr_i[31] 44.1066 
*END

*D_NET *568 0.0119967
*CONN
*P wbs_adr_i[3] I
*I *788:wbs_adr_i[3] I *D afe_wb
*CAP
1 wbs_adr_i[3] 0.00121142
2 *788:wbs_adr_i[3] 0.00478692
3 *568:11 0.00599835
4 *788:wbs_adr_i[3] *788:wbs_dat_i[3] 0
5 *788:wbs_adr_i[3] *788:wbs_sel_i[2] 0
6 *788:wbs_adr_i[3] *598:13 0
7 *568:11 *598:13 0
8 *568:11 *643:13 0
9 *565:13 *788:wbs_adr_i[3] 0
*RES
1 wbs_adr_i[3] *568:11 4.63097 
2 *568:11 *788:wbs_adr_i[3] 85.2225 
*END

*D_NET *569 0.0149025
*CONN
*P wbs_adr_i[4] I
*I *788:wbs_adr_i[4] I *D afe_wb
*CAP
1 wbs_adr_i[4] 0.00206385
2 *788:wbs_adr_i[4] 0.00338911
3 *569:17 0.00545296
4 *788:wbs_adr_i[4] *788:wbs_sel_i[3] 0
5 *569:17 wbs_dat_o[4] 0
6 *569:17 *788:wbs_dat_i[4] 0
7 *569:17 *788:wbs_sel_i[3] 0
8 *569:17 *570:13 0.00151058
9 *569:17 *601:13 0
10 *569:17 *642:13 0.000525992
11 *569:17 *643:13 0.00195999
*RES
1 wbs_adr_i[4] *569:17 31.0563 
2 *569:17 *788:wbs_adr_i[4] 60.6225 
*END

*D_NET *570 0.0141283
*CONN
*P wbs_adr_i[5] I
*I *788:wbs_adr_i[5] I *D afe_wb
*CAP
1 wbs_adr_i[5] 0.00174932
2 *788:wbs_adr_i[5] 0.0043944
3 *570:13 0.00614371
4 *788:wbs_adr_i[5] *788:wbs_dat_i[5] 0
5 *788:wbs_adr_i[5] *601:13 0.000330311
6 *788:wbs_adr_i[5] *634:5 0
7 *570:13 wbs_dat_o[4] 0
8 *570:13 *605:13 0
9 *569:17 *570:13 0.00151058
*RES
1 wbs_adr_i[5] *570:13 10.797 
2 *570:13 *788:wbs_adr_i[5] 81.1425 
*END

*D_NET *571 0.0159347
*CONN
*P wbs_adr_i[6] I
*I *788:wbs_adr_i[6] I *D afe_wb
*CAP
1 wbs_adr_i[6] 0.00146987
2 *788:wbs_adr_i[6] 0.00120244
3 *571:17 0.00472031
4 *571:9 0.00498774
5 *788:wbs_adr_i[6] *788:wbs_dat_i[6] 0
6 *571:9 *639:5 0
7 *571:17 *788:wbs_adr_i[7] 0
8 *571:17 *604:17 0.00340226
9 *571:17 *636:15 0
10 *571:17 *639:5 0
11 *788:wbs_adr_i[10] *571:17 0.00015207
12 *544:13 *571:9 0
13 *544:13 *571:17 0
*RES
1 wbs_adr_i[6] *571:9 26.2425 
2 *571:9 *571:17 45.7701 
3 *571:17 *788:wbs_adr_i[6] 21.4725 
*END

*D_NET *572 0.0172333
*CONN
*P wbs_adr_i[7] I
*I *788:wbs_adr_i[7] I *D afe_wb
*CAP
1 wbs_adr_i[7] 0.00110821
2 *788:wbs_adr_i[7] 0.00268908
3 *572:13 0.00442216
4 *572:9 0.00284129
5 *788:wbs_adr_i[7] *788:wbs_dat_i[7] 0
6 *788:wbs_adr_i[7] *604:17 0
7 *788:wbs_adr_i[7] *636:15 0.00363491
8 *572:9 wbs_dat_o[6] 0
9 *572:9 *788:wbs_dat_i[11] 0.000879469
10 *572:9 *610:5 0
11 *572:13 *788:wbs_dat_i[11] 0
12 *572:13 *610:5 0.00165823
13 *545:17 *788:wbs_adr_i[7] 0
14 *571:17 *788:wbs_adr_i[7] 0
*RES
1 wbs_adr_i[7] *572:9 26.2425 
2 *572:9 *572:13 44.345 
3 *572:13 *788:wbs_adr_i[7] 23.7716 
*END

*D_NET *573 0.0182813
*CONN
*P wbs_adr_i[8] I
*I *788:wbs_adr_i[8] I *D afe_wb
*CAP
1 wbs_adr_i[8] 0.00248762
2 *788:wbs_adr_i[8] 0.00375814
3 *573:13 0.00624576
4 *788:wbs_adr_i[8] *788:wbs_dat_i[8] 0
5 *788:wbs_adr_i[8] *637:7 0
6 *573:13 wbs_dat_o[7] 0
7 *573:13 *788:wbs_dat_i[13] 0
8 *573:13 *606:13 0.00438738
9 *788:wbs_adr_i[13] *573:13 0.00140243
*RES
1 wbs_adr_i[8] *573:13 26.8492 
2 *573:13 *788:wbs_adr_i[8] 67.8825 
*END

*D_NET *574 0.0163663
*CONN
*P wbs_adr_i[9] I
*I *788:wbs_adr_i[9] I *D afe_wb
*CAP
1 wbs_adr_i[9] 0.00222889
2 *788:wbs_adr_i[9] 0.00238018
3 *574:17 0.00562264
4 *574:13 0.00547135
5 *788:wbs_adr_i[9] *788:wbs_dat_i[9] 0
6 *788:wbs_adr_i[9] *638:5 0
7 *574:13 wbs_dat_o[14] 0
8 *574:13 *607:13 0
9 *574:13 *613:5 0.000663237
10 *574:17 wbs_dat_o[7] 0
11 *788:wbs_adr_i[15] *574:13 0
*RES
1 wbs_adr_i[9] *574:13 44.7425 
2 *574:13 *574:17 8.63707 
3 *574:17 *788:wbs_adr_i[9] 42.8925 
*END

*D_NET *575 0.0111225
*CONN
*P wbs_cyc_i I
*I *788:wbs_cyc_i I *D afe_wb
*CAP
1 wbs_cyc_i 0.00146488
2 *788:wbs_cyc_i 0.000708717
3 *575:11 0.00382896
4 *575:9 0.00458513
5 *788:wbs_cyc_i *788:wbs_stb_i 0
6 *788:wb_clk_i *575:11 0.000534802
7 *542:11 *788:wbs_cyc_i 0
*RES
1 wbs_cyc_i *575:9 26.7525 
2 *575:9 *575:11 60.675 
3 *575:11 *788:wbs_cyc_i 2.6112 
*END

*D_NET *576 0.00987626
*CONN
*P wbs_dat_i[0] I
*I *788:wbs_dat_i[0] I *D afe_wb
*CAP
1 wbs_dat_i[0] 0.00154588
2 *788:wbs_dat_i[0] 0.00338857
3 *576:9 0.00493445
4 *788:wbs_dat_i[0] wbs_dat_o[0] 3.60024e-06
5 *576:9 wbs_dat_o[0] 0
6 *788:wbs_adr_i[0] *788:wbs_dat_i[0] 0
7 *543:17 *576:9 0
8 *543:21 *788:wbs_dat_i[0] 0
9 *543:21 *576:9 3.75882e-06
*RES
1 wbs_dat_i[0] *576:9 28.1325 
2 *576:9 *788:wbs_dat_i[0] 60.6225 
*END

*D_NET *577 0.0183017
*CONN
*P wbs_dat_i[10] I
*I *788:wbs_dat_i[10] I *D afe_wb
*CAP
1 wbs_dat_i[10] 0.0049786
2 *788:wbs_dat_i[10] 0.00279538
3 *577:13 0.00777398
4 *788:wbs_dat_i[10] *604:9 0.000151322
5 *788:wbs_dat_i[10] *604:17 0.00147159
6 *788:wbs_dat_i[10] *609:5 0
7 *577:13 wbs_dat_o[13] 0
8 *577:13 *615:5 0.00045883
9 *788:wbs_adr_i[10] *788:wbs_dat_i[10] 0
10 *788:wbs_adr_i[17] *577:13 0
11 *544:13 *788:wbs_dat_i[10] 0
12 *548:13 *577:13 0
13 *550:13 *577:13 0.000672032
*RES
1 wbs_dat_i[10] *577:13 34.4403 
2 *577:13 *788:wbs_dat_i[10] 62.2725 
*END

*D_NET *578 0.0240365
*CONN
*P wbs_dat_i[11] I
*I *788:wbs_dat_i[11] I *D afe_wb
*CAP
1 wbs_dat_i[11] 0.00187319
2 *788:wbs_dat_i[11] 0.00432029
3 *578:13 0.00619347
4 *788:wbs_dat_i[11] wbs_dat_o[6] 0
5 *788:wbs_dat_i[11] *610:5 0
6 *788:wbs_dat_i[11] *636:15 0
7 *788:wbs_dat_i[11] *636:17 0
8 *578:13 *580:13 0.00492764
9 *788:wbs_adr_i[11] *788:wbs_dat_i[11] 0
10 *544:11 *578:13 0.000598638
11 *546:13 *578:13 0
12 *547:13 *578:13 0.00524382
13 *572:9 *788:wbs_dat_i[11] 0.000879469
14 *572:13 *788:wbs_dat_i[11] 0
*RES
1 wbs_dat_i[11] *578:13 13.5539 
2 *578:13 *788:wbs_dat_i[11] 84.2025 
*END

*D_NET *579 0.0181464
*CONN
*P wbs_dat_i[12] I
*I *788:wbs_dat_i[12] I *D afe_wb
*CAP
1 wbs_dat_i[12] 0.000920125
2 *788:wbs_dat_i[12] 0.00388027
3 *579:13 0.00388027
4 *579:11 0.00378432
5 *579:9 0.00470444
6 *788:wbs_dat_i[12] wbs_dat_o[7] 0
7 *788:wbs_dat_i[12] *611:7 0
8 *579:9 *788:wbs_dat_i[20] 0
9 *579:9 *618:5 0
10 *579:11 wbs_dat_o[16] 0.000263081
11 *788:wbs_adr_i[12] *788:wbs_dat_i[12] 0
12 *788:wbs_adr_i[20] *579:9 0.000446479
13 *553:13 *579:11 0.000267435
*RES
1 wbs_dat_i[12] *579:9 19.895 
2 *579:9 *579:11 63.24 
3 *579:11 *579:13 2 
4 *579:13 *788:wbs_dat_i[12] 68.52 
*END

*D_NET *580 0.0263926
*CONN
*P wbs_dat_i[13] I
*I *788:wbs_dat_i[13] I *D afe_wb
*CAP
1 wbs_dat_i[13] 0.00175475
2 *788:wbs_dat_i[13] 0.00472985
3 *580:13 0.0064846
4 *788:wbs_dat_i[13] *606:13 0
5 *788:wbs_dat_i[13] *612:5 0
6 *580:13 *581:11 0.00681041
7 *788:wbs_adr_i[13] *788:wbs_dat_i[13] 0
8 *544:11 *580:13 0.000380377
9 *547:13 *580:13 0.00130496
10 *549:13 *580:13 0
11 *573:13 *788:wbs_dat_i[13] 0
12 *578:13 *580:13 0.00492764
*RES
1 wbs_dat_i[13] *580:13 14.2773 
2 *580:13 *788:wbs_dat_i[13] 84.7125 
*END

*D_NET *581 0.0292315
*CONN
*P wbs_dat_i[14] I
*I *788:wbs_dat_i[14] I *D afe_wb
*CAP
1 wbs_dat_i[14] 0.00218093
2 *788:wbs_dat_i[14] 0.0047694
3 *581:11 0.00695033
4 *788:wbs_dat_i[14] wbs_dat_o[14] 0
5 *788:wbs_dat_i[14] wbs_dat_o[8] 0
6 *788:wbs_dat_i[14] *613:5 0
7 *581:11 wbs_dat_o[14] 0.00808344
8 *581:11 wbs_dat_o[22] 0.00013959
9 *788:wbs_adr_i[14] *788:wbs_dat_i[14] 0
10 *544:11 *581:11 0.000164547
11 *558:13 *581:11 0.000132864
12 *580:13 *581:11 0.00681041
*RES
1 wbs_dat_i[14] *581:11 14.5363 
2 *581:11 *788:wbs_dat_i[14] 85.2225 
*END

*D_NET *582 0.0235664
*CONN
*P wbs_dat_i[15] I
*I *788:wbs_dat_i[15] I *D afe_wb
*CAP
1 wbs_dat_i[15] 0.00450712
2 *788:wbs_dat_i[15] 0.00418878
3 *582:13 0.0086959
4 *788:wbs_dat_i[15] *607:13 0
5 *788:wbs_dat_i[15] *614:5 0
6 *582:13 wbs_dat_o[11] 0
7 *582:13 wbs_dat_o[19] 0.00016736
8 *582:13 wbs_dat_o[9] 0.000359977
9 *582:13 *588:13 0.000913808
10 *582:13 *624:5 0.000369633
11 *788:wbs_adr_i[15] *788:wbs_dat_i[15] 0
12 *546:13 *582:13 0
13 *555:13 *582:13 0.00436382
*RES
1 wbs_dat_i[15] *582:13 26.677 
2 *582:13 *788:wbs_dat_i[15] 74.0025 
*END

*D_NET *583 0.02625
*CONN
*P wbs_dat_i[16] I
*I *788:wbs_dat_i[16] I *D afe_wb
*CAP
1 wbs_dat_i[16] 0.00516078
2 *788:wbs_dat_i[16] 0.00352029
3 *583:13 0.00868108
4 *788:wbs_dat_i[16] *615:5 0
5 *583:13 wbs_dat_o[16] 0
6 *583:13 *626:5 0
7 *788:wbs_adr_i[16] *788:wbs_dat_i[16] 0
8 *550:13 *583:13 0.00888779
*RES
1 wbs_dat_i[16] *583:13 38.5478 
2 *583:13 *788:wbs_dat_i[16] 63.2925 
*END

*D_NET *584 0.0275168
*CONN
*P wbs_dat_i[17] I
*I *788:wbs_dat_i[17] I *D afe_wb
*CAP
1 wbs_dat_i[17] 0.002272
2 *788:wbs_dat_i[17] 0.00263955
3 *584:13 0.00674321
4 *584:9 0.00637566
5 *788:wbs_dat_i[17] *616:7 0
6 *584:13 *586:13 0
7 *584:13 *616:11 0.00948641
8 *788:wbs_adr_i[17] *788:wbs_dat_i[17] 0
9 *552:13 *584:13 0
*RES
1 wbs_dat_i[17] *584:9 39.5975 
2 *584:9 *584:13 15.5125 
3 *584:13 *788:wbs_dat_i[17] 46.9725 
*END

*D_NET *585 0.0283102
*CONN
*P wbs_dat_i[18] I
*I *788:wbs_dat_i[18] I *D afe_wb
*CAP
1 wbs_dat_i[18] 0.00233888
2 *788:wbs_dat_i[18] 0.0026545
3 *585:17 0.00713724
4 *585:13 0.00682161
5 *788:wbs_dat_i[18] *617:5 0
6 *585:13 wbs_dat_o[18] 0
7 *585:17 wbs_dat_o[15] 0
8 *585:17 *592:13 0
9 *585:17 *616:11 0.00935801
10 *788:wbs_adr_i[18] *788:wbs_dat_i[18] 0
11 *545:17 *788:wbs_dat_i[18] 0
12 *564:13 *585:17 0
*RES
1 wbs_dat_i[18] *585:13 39.6425 
2 *585:13 *585:17 16.5613 
3 *585:17 *788:wbs_dat_i[18] 47.9925 
*END

*D_NET *586 0.0321616
*CONN
*P wbs_dat_i[19] I
*I *788:wbs_dat_i[19] I *D afe_wb
*CAP
1 wbs_dat_i[19] 0.00256149
2 *788:wbs_dat_i[19] 0.0023365
3 *586:13 0.00562922
4 *586:9 0.00585421
5 *788:wbs_dat_i[19] *618:5 0
6 *586:13 *592:13 0.00656034
7 *586:13 *594:13 0
8 *788:wbs_adr_i[19] *788:wbs_dat_i[19] 0
9 *552:13 *586:13 0.00921985
10 *584:13 *586:13 0
*RES
1 wbs_dat_i[19] *586:9 44.6975 
2 *586:9 *586:13 17.2023 
3 *586:13 *788:wbs_dat_i[19] 42.3825 
*END

*D_NET *587 0.0106323
*CONN
*P wbs_dat_i[1] I
*I *788:wbs_dat_i[1] I *D afe_wb
*CAP
1 wbs_dat_i[1] 0.0012662
2 *788:wbs_dat_i[1] 0.000932871
3 *587:11 0.00370546
4 *587:9 0.00403878
5 *788:wbs_dat_i[1] *619:5 0
6 *587:9 *619:5 0.00068902
7 *788:wbs_adr_i[1] *788:wbs_dat_i[1] 0
*RES
1 wbs_dat_i[1] *587:9 26.2425 
2 *587:9 *587:11 48.5625 
3 *587:11 *788:wbs_dat_i[1] 20.515 
*END

*D_NET *588 0.0305543
*CONN
*P wbs_dat_i[20] I
*I *788:wbs_dat_i[20] I *D afe_wb
*CAP
1 wbs_dat_i[20] 0.00425948
2 *788:wbs_dat_i[20] 0.00438368
3 *588:13 0.00864316
4 *788:wbs_dat_i[20] wbs_dat_o[12] 0
5 *788:wbs_dat_i[20] *611:15 0
6 *588:13 wbs_dat_o[20] 0.0114852
7 *588:13 *596:13 0.00086895
8 *788:wbs_adr_i[20] *788:wbs_dat_i[20] 0
9 *549:13 *588:13 0
10 *555:13 *588:13 0
11 *579:9 *788:wbs_dat_i[20] 0
12 *582:13 *588:13 0.000913808
*RES
1 wbs_dat_i[20] *588:13 28.0938 
2 *588:13 *788:wbs_dat_i[20] 76.5525 
*END

*D_NET *589 0.0378429
*CONN
*P wbs_dat_i[21] I
*I *788:wbs_dat_i[21] I *D afe_wb
*CAP
1 wbs_dat_i[21] 0.0026872
2 *788:wbs_dat_i[21] 0.00440876
3 *589:13 0.00709596
4 *788:wbs_dat_i[21] *621:5 0
5 *589:13 *596:13 0
6 *788:wbs_adr_i[21] *788:wbs_dat_i[21] 0
7 *549:13 *589:13 0.000263944
8 *556:13 *589:13 0.0117681
9 *557:13 *589:13 0.011619
*RES
1 wbs_dat_i[21] *589:13 27.953 
2 *589:13 *788:wbs_dat_i[21] 78.0825 
*END

*D_NET *590 0.0341344
*CONN
*P wbs_dat_i[22] I
*I *788:wbs_dat_i[22] I *D afe_wb
*CAP
1 wbs_dat_i[22] 0.00497459
2 *788:wbs_dat_i[22] 0.00408713
3 *590:13 0.00906172
4 *788:wbs_dat_i[22] wbs_dat_o[13] 0.00190708
5 *788:wbs_dat_i[22] *622:5 0
6 *590:13 wbs_dat_o[22] 0
7 *590:13 *596:13 0
8 *590:13 *599:13 0
9 *788:wbs_adr_i[22] *788:wbs_dat_i[22] 0
10 *548:13 *788:wbs_dat_i[22] 0
11 *549:13 *590:13 0.00177667
12 *557:13 *590:13 0.0123273
*RES
1 wbs_dat_i[22] *590:13 27.5202 
2 *590:13 *788:wbs_dat_i[22] 79.1025 
*END

*D_NET *591 0.0259591
*CONN
*P wbs_dat_i[23] I
*I *788:wbs_dat_i[23] I *D afe_wb
*CAP
1 wbs_dat_i[23] 4.08978e-05
2 *788:wbs_dat_i[23] 0.00949121
3 *591:7 0.0118736
4 *591:5 0.00242333
5 *788:wbs_dat_i[23] *593:17 0
6 *788:wbs_dat_i[23] *623:5 0
7 *591:7 wbs_dat_o[23] 0
8 *591:7 *597:15 0.00212997
9 *788:wbs_adr_i[23] *788:wbs_dat_i[23] 0
10 *788:wbs_adr_i[26] *788:wbs_dat_i[23] 0
*RES
1 wbs_dat_i[23] *591:5 0.7425 
2 *591:5 *591:7 58.245 
3 *591:7 *788:wbs_dat_i[23] 48.2225 
*END

*D_NET *592 0.0301712
*CONN
*P wbs_dat_i[24] I
*I *788:wbs_dat_i[24] I *D afe_wb
*CAP
1 wbs_dat_i[24] 0.0024436
2 *788:wbs_dat_i[24] 0.00238176
3 *592:13 0.00936182
4 *592:9 0.00942365
5 *788:wbs_dat_i[24] *624:5 0
6 *592:9 *625:13 0
7 *592:13 *594:13 0
8 *592:13 *616:11 0
9 *788:wbs_adr_i[24] *788:wbs_dat_i[24] 0
10 *559:9 *592:9 0
11 *559:11 *592:9 0
12 *566:17 *592:13 0
13 *585:17 *592:13 0
14 *586:13 *592:13 0.00656034
*RES
1 wbs_dat_i[24] *592:9 43.6775 
2 *592:9 *592:13 21.4557 
3 *592:13 *788:wbs_dat_i[24] 42.8925 
*END

*D_NET *593 0.0284866
*CONN
*P wbs_dat_i[25] I
*I *788:wbs_dat_i[25] I *D afe_wb
*CAP
1 wbs_dat_i[25] 0.000673928
2 *788:wbs_dat_i[25] 0.00177939
3 *593:17 0.0105877
4 *593:13 0.0112575
5 *593:9 0.00312315
6 *788:wbs_dat_i[25] *625:11 0
7 *593:9 wbs_dat_o[25] 0
8 *593:9 wbs_dat_o[31] 0.000210652
9 *593:9 *631:28 0
10 *593:13 wbs_dat_o[31] 0.000854237
11 *788:wbs_adr_i[25] *788:wbs_dat_i[25] 0
12 *788:wbs_dat_i[23] *593:17 0
13 *560:13 *593:17 0
*RES
1 wbs_dat_i[25] *593:9 10.8825 
2 *593:9 *593:13 44.57 
3 *593:13 *593:17 22.5045 
4 *593:17 *788:wbs_dat_i[25] 32.1825 
*END

*D_NET *594 0.0349586
*CONN
*P wbs_dat_i[26] I
*I *788:wbs_dat_i[26] I *D afe_wb
*CAP
1 wbs_dat_i[26] 0.00273748
2 *788:wbs_dat_i[26] 0.0021145
3 *594:13 0.0081414
4 *594:9 0.00876437
5 *788:wbs_dat_i[26] *626:5 0
6 *788:wbs_adr_i[26] *788:wbs_dat_i[26] 0
7 *552:13 *594:13 0
8 *560:13 *594:13 0.0132008
9 *586:13 *594:13 0
10 *592:13 *594:13 0
*RES
1 wbs_dat_i[26] *594:9 48.7775 
2 *594:9 *594:13 23.1455 
3 *594:13 *788:wbs_dat_i[26] 37.7925 
*END

*D_NET *595 0.0439386
*CONN
*P wbs_dat_i[27] I
*I *788:wbs_dat_i[27] I *D afe_wb
*CAP
1 wbs_dat_i[27] 0.00138478
2 *788:wbs_dat_i[27] 0.00204066
3 *595:15 0.00522326
4 *595:13 0.00456738
5 *788:wbs_dat_i[27] wbs_dat_o[29] 0.00500094
6 *788:wbs_dat_i[27] wbs_dat_o[31] 0.00156289
7 *788:wbs_dat_i[27] *788:wbs_dat_i[29] 0.00768322
8 *788:wbs_dat_i[27] *625:11 0.000679974
9 *788:wbs_dat_i[27] *627:11 0.00214021
10 *595:13 wbs_dat_o[24] 4.70134e-05
11 *595:13 wbs_dat_o[27] 0.00224922
12 *595:13 *597:13 0.00618606
13 *595:13 *599:13 0.000969676
14 *595:13 *631:28 4.32417e-05
15 *595:15 *597:15 0.00416005
16 *788:wbs_adr_i[27] *788:wbs_dat_i[27] 0
*RES
1 wbs_dat_i[27] *595:13 12.6799 
2 *595:13 *595:15 82.215 
3 *595:15 *788:wbs_dat_i[27] 16.8376 
*END

*D_NET *596 0.0337378
*CONN
*P wbs_dat_i[28] I
*I *788:wbs_dat_i[28] I *D afe_wb
*CAP
1 wbs_dat_i[28] 0.00935045
2 *788:wbs_dat_i[28] 0.000402957
3 *596:15 0.00308705
4 *596:13 0.0120345
5 *788:wbs_dat_i[28] *625:11 0.00040031
6 *596:13 wbs_dat_o[20] 0
7 *596:15 wbs_dat_o[17] 0
8 *596:15 *628:9 0.00184664
9 *596:15 *628:11 0.00250778
10 *788:wbs_adr_i[28] *788:wbs_dat_i[28] 0
11 *555:13 *596:13 0.00323908
12 *556:13 *596:13 0
13 *557:13 *596:13 0
14 *588:13 *596:13 0.00086895
15 *589:13 *596:13 0
16 *590:13 *596:13 0
*RES
1 wbs_dat_i[28] *596:13 37.3935 
2 *596:13 *596:15 70.485 
3 *596:15 *788:wbs_dat_i[28] 5.24317 
*END

*D_NET *597 0.0492103
*CONN
*P wbs_dat_i[29] I
*I *788:wbs_dat_i[29] I *D afe_wb
*CAP
1 wbs_dat_i[29] 0.00191808
2 *788:wbs_dat_i[29] 0.00161085
3 *597:15 0.00389001
4 *597:13 0.00419724
5 *788:wbs_dat_i[29] wbs_dat_o[29] 4.31143e-05
6 *788:wbs_dat_i[29] wbs_dat_o[31] 0.00113974
7 *788:wbs_dat_i[29] *788:wbs_dat_i[31] 0.00572647
8 *788:wbs_dat_i[29] *625:11 0.00099201
9 *597:13 wbs_dat_o[24] 0.00209628
10 *597:13 wbs_dat_o[26] 0.000739198
11 *597:13 wbs_dat_o[27] 0.000244698
12 *597:13 wbs_dat_o[31] 0.00573229
13 *597:13 *599:13 0.000721057
14 *788:wbs_adr_i[29] *788:wbs_dat_i[29] 0
15 *788:wbs_dat_i[27] *788:wbs_dat_i[29] 0.00768322
16 *591:7 *597:15 0.00212997
17 *595:13 *597:13 0.00618606
18 *595:15 *597:15 0.00416005
*RES
1 wbs_dat_i[29] *597:13 16.8266 
2 *597:13 *597:15 82.215 
3 *597:15 *788:wbs_dat_i[29] 14.6673 
*END

*D_NET *598 0.011092
*CONN
*P wbs_dat_i[2] I
*I *788:wbs_dat_i[2] I *D afe_wb
*CAP
1 wbs_dat_i[2] 0.000992544
2 *788:wbs_dat_i[2] 0.00396851
3 *598:13 0.00496106
4 *788:wbs_dat_i[2] *630:5 0
5 *788:wbs_dat_i[2] *641:13 0.00116988
6 *788:wbs_adr_i[2] *788:wbs_dat_i[2] 0
7 *788:wbs_adr_i[3] *598:13 0
8 *568:11 *598:13 0
*RES
1 wbs_dat_i[2] *598:13 7.94197 
2 *598:13 *788:wbs_dat_i[2] 81.1425 
*END

*D_NET *599 0.0352514
*CONN
*P wbs_dat_i[30] I
*I *788:wbs_dat_i[30] I *D afe_wb
*CAP
1 wbs_dat_i[30] 0.00727863
2 *788:wbs_dat_i[30] 2.18948e-05
3 *599:15 0.004764
4 *599:13 0.0120207
5 *599:13 wbs_dat_o[22] 0.00242355
6 *599:13 wbs_dat_o[24] 3.18567e-05
7 *599:13 wbs_dat_o[25] 0.00181059
8 *599:13 wbs_dat_o[27] 0.00456368
9 *599:13 wbs_dat_o[31] 0.000331544
10 *599:13 *631:28 0.000107174
11 *599:15 wbs_dat_o[18] 0
12 *788:wbs_adr_i[30] *599:15 0
13 *553:13 *599:15 0
14 *558:13 *599:13 0.000206987
15 *566:13 *599:13 0
16 *590:13 *599:13 0
17 *595:13 *599:13 0.000969676
18 *597:13 *599:13 0.000721057
*RES
1 wbs_dat_i[30] *599:13 31.1609 
2 *599:13 *599:15 82.215 
3 *599:15 *788:wbs_dat_i[30] 0.3975 
*END

*D_NET *600 0.0446873
*CONN
*P wbs_dat_i[31] I
*I *788:wbs_dat_i[31] I *D afe_wb
*CAP
1 wbs_dat_i[31] 9.49382e-05
2 *788:wbs_dat_i[31] 0.00160652
3 *600:15 0.00535598
4 *600:13 0.00374946
5 *600:11 0.00407067
6 *600:9 0.00416561
7 *788:wbs_dat_i[31] wbs_dat_o[29] 0.000393926
8 *788:wbs_dat_i[31] wbs_dat_o[31] 0
9 *788:wbs_dat_i[31] *625:11 0.00678633
10 *600:11 wbs_dat_o[28] 0.00210958
11 *600:11 wbs_dat_o[31] 0.000513678
12 *600:11 *631:30 0.00776189
13 *788:wbs_adr_i[24] *600:15 0.000409631
14 *788:wbs_adr_i[31] *788:wbs_dat_i[31] 0
15 *788:wbs_dat_i[29] *788:wbs_dat_i[31] 0.00572647
16 *559:9 *600:15 0
17 *559:11 *600:15 0.00194262
*RES
1 wbs_dat_i[31] *600:9 3.665 
2 *600:9 *600:11 97.05 
3 *600:11 *600:13 2 
4 *600:13 *600:15 83.6175 
5 *600:15 *788:wbs_dat_i[31] 14.012 
*END

*D_NET *601 0.0122244
*CONN
*P wbs_dat_i[3] I
*I *788:wbs_dat_i[3] I *D afe_wb
*CAP
1 wbs_dat_i[3] 0.00143585
2 *788:wbs_dat_i[3] 0.00426576
3 *601:13 0.00570161
4 *788:wbs_dat_i[3] *633:5 0
5 *601:13 wbs_dat_o[3] 0
6 *601:13 wbs_dat_o[4] 0.000302863
7 *601:13 *602:13 0.000188054
8 *601:13 *643:13 0
9 *788:wbs_adr_i[3] *788:wbs_dat_i[3] 0
10 *788:wbs_adr_i[5] *601:13 0.000330311
11 *569:17 *601:13 0
*RES
1 wbs_dat_i[3] *601:13 12.964 
2 *601:13 *788:wbs_dat_i[3] 77.5725 
*END

*D_NET *602 0.0147591
*CONN
*P wbs_dat_i[4] I
*I *788:wbs_dat_i[4] I *D afe_wb
*CAP
1 wbs_dat_i[4] 0.00145798
2 *788:wbs_dat_i[4] 0.00429007
3 *602:13 0.00574806
4 *788:wbs_dat_i[4] *634:5 0
5 *602:13 wbs_dat_o[3] 0
6 *602:13 wbs_dat_o[4] 0.00257427
7 *602:13 wbs_dat_o[5] 0.00036304
8 *602:13 *788:wbs_dat_i[7] 0.000137575
9 *602:13 *603:13 0
10 *569:17 *788:wbs_dat_i[4] 0
11 *601:13 *602:13 0.000188054
*RES
1 wbs_dat_i[4] *602:13 15.664 
2 *602:13 *788:wbs_dat_i[4] 76.5525 
*END

*D_NET *603 0.0151808
*CONN
*P wbs_dat_i[5] I
*I *788:wbs_dat_i[5] I *D afe_wb
*CAP
1 wbs_dat_i[5] 0.00204439
2 *788:wbs_dat_i[5] 0.00403701
3 *603:13 0.0060814
4 *788:wbs_dat_i[5] *635:5 0
5 *603:13 wbs_dat_o[3] 0.000215389
6 *603:13 wbs_dat_o[5] 0.00280265
7 *788:wbs_adr_i[5] *788:wbs_dat_i[5] 0
8 *602:13 *603:13 0
*RES
1 wbs_dat_i[5] *603:13 19.0251 
2 *603:13 *788:wbs_dat_i[5] 73.4925 
*END

*D_NET *604 0.0163984
*CONN
*P wbs_dat_i[6] I
*I *788:wbs_dat_i[6] I *D afe_wb
*CAP
1 wbs_dat_i[6] 0.0014402
2 *788:wbs_dat_i[6] 0.00121389
3 *604:17 0.00424641
4 *604:9 0.00447271
5 *788:wbs_dat_i[6] *636:15 0
6 *604:17 *609:5 0
7 *788:wbs_adr_i[6] *788:wbs_dat_i[6] 0
8 *788:wbs_adr_i[7] *604:17 0
9 *788:wbs_dat_i[10] *604:9 0.000151322
10 *788:wbs_dat_i[10] *604:17 0.00147159
11 *544:13 *604:9 0
12 *571:17 *604:17 0.00340226
*RES
1 wbs_dat_i[6] *604:9 26.2425 
2 *604:9 *604:17 45.5514 
3 *604:17 *788:wbs_dat_i[6] 21.9825 
*END

*D_NET *605 0.0152644
*CONN
*P wbs_dat_i[7] I
*I *788:wbs_dat_i[7] I *D afe_wb
*CAP
1 wbs_dat_i[7] 0.00285218
2 *788:wbs_dat_i[7] 0.0044516
3 *605:13 0.00730378
4 *788:wbs_dat_i[7] *637:7 0
5 *605:13 wbs_dat_o[11] 0.000284391
6 *605:13 wbs_dat_o[4] 0.000140366
7 *605:13 wbs_dat_o[5] 0
8 *605:13 wbs_dat_o[9] 0
9 *605:13 *607:13 0
10 *788:wbs_adr_i[12] *605:13 9.45007e-05
11 *788:wbs_adr_i[7] *788:wbs_dat_i[7] 0
12 *570:13 *605:13 0
13 *602:13 *788:wbs_dat_i[7] 0.000137575
*RES
1 wbs_dat_i[7] *605:13 15.8381 
2 *605:13 *788:wbs_dat_i[7] 78.0825 
*END

*D_NET *606 0.0184565
*CONN
*P wbs_dat_i[8] I
*I *788:wbs_dat_i[8] I *D afe_wb
*CAP
1 wbs_dat_i[8] 0.00324187
2 *788:wbs_dat_i[8] 0.0037927
3 *606:13 0.00703457
4 *788:wbs_dat_i[8] *638:5 0
5 *606:13 *607:13 0
6 *788:wbs_adr_i[8] *788:wbs_dat_i[8] 0
7 *788:wbs_dat_i[13] *606:13 0
8 *573:13 *606:13 0.00438738
*RES
1 wbs_dat_i[8] *606:13 26.3438 
2 *606:13 *788:wbs_dat_i[8] 68.3925 
*END

*D_NET *607 0.0193576
*CONN
*P wbs_dat_i[9] I
*I *788:wbs_dat_i[9] I *D afe_wb
*CAP
1 wbs_dat_i[9] 0.00300564
2 *788:wbs_dat_i[9] 0.00406383
3 *607:13 0.00706948
4 *788:wbs_dat_i[9] *639:5 0
5 *607:13 wbs_dat_o[9] 0.00498485
6 *788:wbs_adr_i[15] *607:13 0.000233813
7 *788:wbs_adr_i[9] *788:wbs_dat_i[9] 0
8 *788:wbs_dat_i[15] *607:13 0
9 *574:13 *607:13 0
10 *605:13 *607:13 0
11 *606:13 *607:13 0
*RES
1 wbs_dat_i[9] *607:13 22.9146 
2 *607:13 *788:wbs_dat_i[9] 72.9825 
*END

*D_NET *608 0.00988627
*CONN
*P wbs_dat_o[0] O
*I *788:wbs_dat_o[0] O *D afe_wb
*CAP
1 wbs_dat_o[0] 0.00155132
2 *788:wbs_dat_o[0] 0.00339001
3 *608:5 0.00494134
4 *608:5 *788:wbs_sel_i[0] 0
5 *788:wbs_dat_i[0] wbs_dat_o[0] 3.60024e-06
6 *576:9 wbs_dat_o[0] 0
*RES
1 *788:wbs_dat_o[0] *608:5 60.6225 
2 *608:5 wbs_dat_o[0] 27.7875 
*END

*D_NET *609 0.0164891
*CONN
*P wbs_dat_o[10] O
*I *788:wbs_dat_o[10] O *D afe_wb
*CAP
1 wbs_dat_o[10] 0.00195941
2 *788:wbs_dat_o[10] 0.00293677
3 *609:9 0.00530777
4 *609:7 0.00334836
5 *609:5 0.00293677
6 *609:5 *636:15 0
7 *609:5 *636:17 0
8 *788:wbs_adr_i[11] *609:5 0
9 *788:wbs_adr_i[17] wbs_dat_o[10] 0
10 *788:wbs_dat_i[10] *609:5 0
11 *604:17 *609:5 0
*RES
1 *788:wbs_dat_o[10] *609:5 52.965 
2 *609:5 *609:7 2 
3 *609:7 *609:9 54.96 
4 *609:9 wbs_dat_o[10] 35.45 
*END

*D_NET *610 0.0220709
*CONN
*P wbs_dat_o[11] O
*I *788:wbs_dat_o[11] O *D afe_wb
*CAP
1 wbs_dat_o[11] 0.00316658
2 *788:wbs_dat_o[11] 0.0036799
3 *610:5 0.00684649
4 wbs_dat_o[11] wbs_dat_o[9] 0
5 *788:wbs_adr_i[12] *610:5 0
6 *788:wbs_dat_i[11] *610:5 0
7 *546:13 wbs_dat_o[11] 0.0064353
8 *572:9 *610:5 0
9 *572:13 *610:5 0.00165823
10 *582:13 wbs_dat_o[11] 0
11 *605:13 wbs_dat_o[11] 0.000284391
*RES
1 *788:wbs_dat_o[11] *610:5 78.5925 
2 *610:5 wbs_dat_o[11] 19.2856 
*END

*D_NET *611 0.0199075
*CONN
*P wbs_dat_o[12] O
*I *788:wbs_dat_o[12] O *D afe_wb
*CAP
1 wbs_dat_o[12] 0.00127781
2 *788:wbs_dat_o[12] 0.00120029
3 *611:15 0.00274461
4 *611:9 0.00546162
5 *611:7 0.00519511
6 wbs_dat_o[12] *620:5 0.000581334
7 *611:15 *620:5 0.00344676
8 *788:wbs_adr_i[13] *611:7 0
9 *788:wbs_dat_i[12] *611:7 0
10 *788:wbs_dat_i[20] wbs_dat_o[12] 0
11 *788:wbs_dat_i[20] *611:15 0
*RES
1 *788:wbs_dat_o[12] *611:7 23.855 
2 *611:7 *611:9 66 
3 *611:9 *611:15 41.6675 
4 *611:15 wbs_dat_o[12] 25.9575 
*END

*D_NET *612 0.022672
*CONN
*P wbs_dat_o[13] O
*I *788:wbs_dat_o[13] O *D afe_wb
*CAP
1 wbs_dat_o[13] 0.00481644
2 *788:wbs_dat_o[13] 0.00322687
3 *612:5 0.00804331
4 wbs_dat_o[13] wbs_dat_o[15] 0
5 wbs_dat_o[13] wbs_dat_o[21] 0.000583106
6 wbs_dat_o[13] wbs_dat_o[8] 0
7 *788:wbs_adr_i[14] *612:5 0
8 *788:wbs_adr_i[22] wbs_dat_o[13] 0
9 *788:wbs_dat_i[13] *612:5 0
10 *788:wbs_dat_i[22] wbs_dat_o[13] 0.00190708
11 *548:13 wbs_dat_o[13] 0.00409524
12 *577:13 wbs_dat_o[13] 0
*RES
1 *788:wbs_dat_o[13] *612:5 57.1725 
2 *612:5 wbs_dat_o[13] 43.0617 
*END

*D_NET *613 0.0295698
*CONN
*P wbs_dat_o[14] O
*I *788:wbs_dat_o[14] O *D afe_wb
*CAP
1 wbs_dat_o[14] 0.00332245
2 *788:wbs_dat_o[14] 0.00307422
3 *613:5 0.00639667
4 *788:wbs_adr_i[15] *613:5 0
5 *788:wbs_dat_i[14] wbs_dat_o[14] 0
6 *788:wbs_dat_i[14] *613:5 0
7 *544:11 wbs_dat_o[14] 0.00150993
8 *551:11 wbs_dat_o[14] 0.00633369
9 *558:13 wbs_dat_o[14] 0.000186218
10 *574:13 wbs_dat_o[14] 0
11 *574:13 *613:5 0.000663237
12 *581:11 wbs_dat_o[14] 0.00808344
*RES
1 *788:wbs_dat_o[14] *613:5 60.6225 
2 *613:5 wbs_dat_o[14] 40.4926 
*END

*D_NET *614 0.0211811
*CONN
*P wbs_dat_o[15] O
*I *788:wbs_dat_o[15] O *D afe_wb
*CAP
1 wbs_dat_o[15] 0.00760393
2 *788:wbs_dat_o[15] 0.0029866
3 *614:5 0.0105905
4 wbs_dat_o[15] wbs_dat_o[21] 0
5 wbs_dat_o[13] wbs_dat_o[15] 0
6 *788:wbs_adr_i[16] *614:5 0
7 *788:wbs_dat_i[15] *614:5 0
8 *585:17 wbs_dat_o[15] 0
*RES
1 *788:wbs_dat_o[15] *614:5 53.0925 
2 *614:5 wbs_dat_o[15] 47.5916 
*END

*D_NET *615 0.0265616
*CONN
*P wbs_dat_o[16] O
*I *788:wbs_dat_o[16] O *D afe_wb
*CAP
1 wbs_dat_o[16] 0.00537915
2 *788:wbs_dat_o[16] 0.00364272
3 *615:5 0.00902187
4 wbs_dat_o[16] wbs_dat_o[18] 0.00779598
5 wbs_dat_o[16] *626:5 0
6 *788:wbs_adr_i[17] *615:5 0
7 *788:wbs_dat_i[16] *615:5 0
8 *577:13 *615:5 0.00045883
9 *579:11 wbs_dat_o[16] 0.000263081
10 *583:13 wbs_dat_o[16] 0
*RES
1 *788:wbs_dat_o[16] *615:5 67.3725 
2 *615:5 wbs_dat_o[16] 34.4724 
*END

*D_NET *616 0.0330112
*CONN
*P wbs_dat_o[17] O
*I *788:wbs_dat_o[17] O *D afe_wb
*CAP
1 wbs_dat_o[17] 0.00223709
2 *788:wbs_dat_o[17] 0.00262298
3 *616:11 0.00446041
4 *616:7 0.00484629
5 wbs_dat_o[17] *628:11 0
6 *788:wbs_adr_i[18] *616:7 0
7 *788:wbs_dat_i[17] *616:7 0
8 *545:17 *616:7 0
9 *584:13 *616:11 0.00948641
10 *585:17 *616:11 0.00935801
11 *592:13 *616:11 0
12 *596:15 wbs_dat_o[17] 0
*RES
1 *788:wbs_dat_o[17] *616:7 47.9825 
2 *616:7 *616:11 15.8039 
3 *616:11 wbs_dat_o[17] 38.5875 
*END

*D_NET *617 0.0334385
*CONN
*P wbs_dat_o[18] O
*I *788:wbs_dat_o[18] O *D afe_wb
*CAP
1 wbs_dat_o[18] 0.00371186
2 *788:wbs_dat_o[18] 0.00388401
3 *617:5 0.00759587
4 wbs_dat_o[16] wbs_dat_o[18] 0.00779598
5 *788:wbs_adr_i[19] *617:5 0
6 *788:wbs_dat_i[18] *617:5 0
7 *553:13 wbs_dat_o[18] 0.0104508
8 *562:13 wbs_dat_o[18] 0
9 *585:13 wbs_dat_o[18] 0
10 *599:15 wbs_dat_o[18] 0
*RES
1 *788:wbs_dat_o[18] *617:5 67.8825 
2 *617:5 wbs_dat_o[18] 35.9388 
*END

*D_NET *618 0.0301034
*CONN
*P wbs_dat_o[19] O
*I *788:wbs_dat_o[19] O *D afe_wb
*CAP
1 wbs_dat_o[19] 0.00553555
2 *788:wbs_dat_o[19] 0.00409928
3 *618:5 0.00963483
4 *788:wbs_adr_i[20] *618:5 0
5 *788:wbs_dat_i[19] *618:5 0
6 *553:13 wbs_dat_o[19] 0
7 *555:13 wbs_dat_o[19] 0.0106664
8 *579:9 *618:5 0
9 *582:13 wbs_dat_o[19] 0.00016736
*RES
1 *788:wbs_dat_o[19] *618:5 72.9825 
2 *618:5 wbs_dat_o[19] 31.6546 
*END

*D_NET *619 0.0107933
*CONN
*P wbs_dat_o[1] O
*I *788:wbs_dat_o[1] O *D afe_wb
*CAP
1 wbs_dat_o[1] 0.00104013
2 *788:wbs_dat_o[1] 0.00401203
3 *619:5 0.00505216
4 *788:wbs_dat_i[1] *619:5 0
5 *587:9 *619:5 0.00068902
*RES
1 *788:wbs_dat_o[1] *619:5 74.5125 
2 *619:5 wbs_dat_o[1] 14.043 
*END

*D_NET *620 0.0395907
*CONN
*P wbs_dat_o[20] O
*I *788:wbs_dat_o[20] O *D afe_wb
*CAP
1 wbs_dat_o[20] 0.00277753
2 *788:wbs_dat_o[20] 0.0033171
3 *620:5 0.00609462
4 wbs_dat_o[12] *620:5 0.000581334
5 *788:wbs_adr_i[21] *620:5 0
6 *549:13 wbs_dat_o[20] 7.7349e-05
7 *556:13 wbs_dat_o[20] 0.0118108
8 *588:13 wbs_dat_o[20] 0.0114852
9 *596:13 wbs_dat_o[20] 0
10 *611:15 *620:5 0.00344676
*RES
1 *788:wbs_dat_o[20] *620:5 77.0625 
2 *620:5 wbs_dat_o[20] 28.6182 
*END

*D_NET *621 0.0313931
*CONN
*P wbs_dat_o[21] O
*I *788:wbs_dat_o[21] O *D afe_wb
*CAP
1 wbs_dat_o[21] 0.00642112
2 *788:wbs_dat_o[21] 0.00321096
3 *621:5 0.00963208
4 wbs_dat_o[21] wbs_dat_o[23] 0.0106471
5 wbs_dat_o[13] wbs_dat_o[21] 0.000583106
6 wbs_dat_o[15] wbs_dat_o[21] 0
7 *788:wbs_adr_i[22] *621:5 0
8 *788:wbs_dat_i[21] *621:5 0
9 *548:13 wbs_dat_o[21] 0.000898692
10 *550:13 wbs_dat_o[21] 0
11 *564:13 wbs_dat_o[21] 0
*RES
1 *788:wbs_dat_o[21] *621:5 57.6825 
2 *621:5 wbs_dat_o[21] 48.3576 
*END

*D_NET *622 0.0342713
*CONN
*P wbs_dat_o[22] O
*I *788:wbs_dat_o[22] O *D afe_wb
*CAP
1 wbs_dat_o[22] 0.00414058
2 *788:wbs_dat_o[22] 0.00421142
3 *622:5 0.008352
4 *788:wbs_adr_i[23] *622:5 0
5 *788:wbs_dat_i[22] *622:5 0
6 *548:13 *622:5 0.0022302
7 *549:13 wbs_dat_o[22] 0
8 *558:13 wbs_dat_o[22] 0.012774
9 *581:11 wbs_dat_o[22] 0.00013959
10 *590:13 wbs_dat_o[22] 0
11 *599:13 wbs_dat_o[22] 0.00242355
*RES
1 *788:wbs_dat_o[22] *622:5 83.6925 
2 *622:5 wbs_dat_o[22] 23.2216 
*END

*D_NET *623 0.0322253
*CONN
*P wbs_dat_o[23] O
*I *788:wbs_dat_o[23] O *D afe_wb
*CAP
1 wbs_dat_o[23] 0.00745117
2 *788:wbs_dat_o[23] 0.00333793
3 *623:5 0.0107891
4 wbs_dat_o[21] wbs_dat_o[23] 0.0106471
5 *788:wbs_dat_i[23] *623:5 0
6 *550:13 wbs_dat_o[23] 0
7 *562:13 wbs_dat_o[23] 0
8 *564:13 wbs_dat_o[23] 0
9 *591:7 wbs_dat_o[23] 0
*RES
1 *788:wbs_dat_o[23] *623:5 58.1925 
2 *623:5 wbs_dat_o[23] 49.824 
*END

*D_NET *624 0.0422406
*CONN
*P wbs_dat_o[24] O
*I *788:wbs_dat_o[24] O *D afe_wb
*CAP
1 wbs_dat_o[24] 0.00264635
2 *788:wbs_dat_o[24] 0.00466804
3 *624:5 0.00731439
4 wbs_dat_o[24] wbs_dat_o[26] 0.0123178
5 *788:wbs_adr_i[25] *624:5 0
6 *788:wbs_dat_i[24] *624:5 0
7 *551:11 wbs_dat_o[24] 0.00083754
8 *558:13 wbs_dat_o[24] 0.0119117
9 *582:13 *624:5 0.000369633
10 *595:13 wbs_dat_o[24] 4.70134e-05
11 *597:13 wbs_dat_o[24] 0.00209628
12 *599:13 wbs_dat_o[24] 3.18567e-05
*RES
1 *788:wbs_dat_o[24] *624:5 84.7125 
2 *624:5 wbs_dat_o[24] 23.8913 
*END

*D_NET *625 0.0336683
*CONN
*P wbs_dat_o[25] O
*I *788:wbs_dat_o[25] O *D afe_wb
*CAP
1 wbs_dat_o[25] 0.00104914
2 *788:wbs_dat_o[25] 0.00592276
3 *625:13 0.00543402
4 *625:11 0.0103076
5 wbs_dat_o[25] *631:28 0.000109174
6 *625:11 wbs_dat_o[29] 0.000176392
7 *788:wbs_adr_i[26] *625:11 0
8 *788:wbs_dat_i[25] *625:11 0
9 *788:wbs_dat_i[27] *625:11 0.000679974
10 *788:wbs_dat_i[28] *625:11 0.00040031
11 *788:wbs_dat_i[29] *625:11 0.00099201
12 *788:wbs_dat_i[31] *625:11 0.00678633
13 *592:9 *625:13 0
14 *593:9 wbs_dat_o[25] 0
15 *599:13 wbs_dat_o[25] 0.00181059
*RES
1 *788:wbs_dat_o[25] *625:11 23.4368 
2 *625:11 *625:13 78.645 
3 *625:13 wbs_dat_o[25] 8.48077 
*END

*D_NET *626 0.0460503
*CONN
*P wbs_dat_o[26] O
*I *788:wbs_dat_o[26] O *D afe_wb
*CAP
1 wbs_dat_o[26] 0.00389501
2 *788:wbs_dat_o[26] 0.00486688
3 *626:5 0.00876189
4 wbs_dat_o[26] wbs_dat_o[28] 0.013334
5 wbs_dat_o[26] wbs_dat_o[31] 0.00167356
6 wbs_dat_o[16] *626:5 0
7 wbs_dat_o[24] wbs_dat_o[26] 0.0123178
8 *788:wbs_adr_i[27] *626:5 0
9 *788:wbs_dat_i[26] *626:5 0
10 *551:11 wbs_dat_o[26] 0.000461958
11 *583:13 *626:5 0
12 *597:13 wbs_dat_o[26] 0.000739198
*RES
1 *788:wbs_dat_o[26] *626:5 85.2225 
2 *626:5 wbs_dat_o[26] 25.2528 
*END

*D_NET *627 0.0402102
*CONN
*P wbs_dat_o[27] O
*I *788:wbs_dat_o[27] O *D afe_wb
*CAP
1 wbs_dat_o[27] 0.00117559
2 *788:wbs_dat_o[27] 0.00412866
3 *627:13 0.0059455
4 *627:11 0.00889858
5 wbs_dat_o[27] *631:28 3.99991e-05
6 *627:11 wbs_dat_o[29] 0.00866133
7 *627:11 wbs_dat_o[31] 0.00208128
8 *627:11 *631:28 8.14646e-05
9 *788:wbs_adr_i[28] *627:11 0
10 *788:wbs_dat_i[27] *627:11 0.00214021
11 *560:9 *627:13 0
12 *563:9 wbs_dat_o[27] 0
13 *595:13 wbs_dat_o[27] 0.00224922
14 *597:13 wbs_dat_o[27] 0.000244698
15 *599:13 wbs_dat_o[27] 0.00456368
*RES
1 *788:wbs_dat_o[27] *627:11 18.8474 
2 *627:11 *627:13 82.215 
3 *627:13 wbs_dat_o[27] 11.7044 
*END

*D_NET *628 0.0437814
*CONN
*P wbs_dat_o[28] O
*I *788:wbs_dat_o[28] O *D afe_wb
*CAP
1 wbs_dat_o[28] 0.00632711
2 *788:wbs_dat_o[28] 0.00104056
3 *628:11 0.00899055
4 *628:9 0.003704
5 wbs_dat_o[28] wbs_dat_o[31] 0.00176424
6 wbs_dat_o[28] *631:30 0.00215689
7 wbs_dat_o[17] *628:11 0
8 wbs_dat_o[26] wbs_dat_o[28] 0.013334
9 *788:wbs_adr_i[29] *628:9 0
10 *788:wbs_adr_i[29] *628:11 0
11 *552:9 *628:11 0
12 *596:15 *628:9 0.00184664
13 *596:15 *628:11 0.00250778
14 *600:11 wbs_dat_o[28] 0.00210958
*RES
1 *788:wbs_dat_o[28] *628:9 25.9875 
2 *628:9 *628:11 61.44 
3 *628:11 wbs_dat_o[28] 26.4227 
*END

*D_NET *629 0.0450164
*CONN
*P wbs_dat_o[29] O
*I *788:wbs_dat_o[29] O *D afe_wb
*CAP
1 wbs_dat_o[29] 0.0139419
2 *788:wbs_dat_o[29] 0.0139419
3 wbs_dat_o[29] wbs_dat_o[31] 0.00191015
4 wbs_dat_o[29] *631:28 0.000416559
5 *788:wbs_dat_i[27] wbs_dat_o[29] 0.00500094
6 *788:wbs_dat_i[29] wbs_dat_o[29] 4.31143e-05
7 *788:wbs_dat_i[31] wbs_dat_o[29] 0.000393926
8 *560:9 wbs_dat_o[29] 0.000530213
9 *625:11 wbs_dat_o[29] 0.000176392
10 *627:11 wbs_dat_o[29] 0.00866133
*RES
1 *788:wbs_dat_o[29] wbs_dat_o[29] 37.0221 
*END

*D_NET *630 0.0116417
*CONN
*P wbs_dat_o[2] O
*I *788:wbs_dat_o[2] O *D afe_wb
*CAP
1 wbs_dat_o[2] 0.00172277
2 *788:wbs_dat_o[2] 0.00373244
3 *630:5 0.00545521
4 wbs_dat_o[2] *788:wbs_sel_i[3] 0.000731276
5 wbs_dat_o[2] *633:5 0
6 wbs_dat_o[2] *642:13 0
7 *630:5 *788:wbs_sel_i[2] 0
8 *630:5 *641:13 0
9 *788:wbs_dat_i[2] *630:5 0
10 *565:13 *630:5 0
*RES
1 *788:wbs_dat_o[2] *630:5 67.8825 
2 *630:5 wbs_dat_o[2] 21.9496 
*END

*D_NET *631 0.0414471
*CONN
*P wbs_dat_o[30] O
*I *788:wbs_dat_o[30] O *D afe_wb
*CAP
1 wbs_dat_o[30] 0.000154352
2 *788:wbs_dat_o[30] 0.0122291
3 *631:30 0.00265738
4 *631:28 0.0147322
5 *631:28 wbs_dat_o[31] 4.14081e-06
6 *631:30 wbs_dat_o[31] 0.000717887
7 wbs_dat_o[25] *631:28 0.000109174
8 wbs_dat_o[27] *631:28 3.99991e-05
9 wbs_dat_o[28] *631:30 0.00215689
10 wbs_dat_o[29] *631:28 0.000416559
11 *788:wbs_adr_i[31] *631:28 0.000235648
12 *593:9 *631:28 0
13 *595:13 *631:28 4.32417e-05
14 *599:13 *631:28 0.000107174
15 *600:11 *631:30 0.00776189
16 *627:11 *631:28 8.14646e-05
*RES
1 *788:wbs_dat_o[30] *631:28 23.1331 
2 *631:28 *631:30 70.14 
3 *631:30 wbs_dat_o[30] 3.665 
*END

*D_NET *632 0.0507832
*CONN
*P wbs_dat_o[31] O
*I *788:wbs_dat_o[31] O *D afe_wb
*CAP
1 wbs_dat_o[31] 0.0161435
2 *788:wbs_dat_o[31] 0.0161435
3 wbs_dat_o[26] wbs_dat_o[31] 0.00167356
4 wbs_dat_o[28] wbs_dat_o[31] 0.00176424
5 wbs_dat_o[29] wbs_dat_o[31] 0.00191015
6 *788:wbs_dat_i[27] wbs_dat_o[31] 0.00156289
7 *788:wbs_dat_i[29] wbs_dat_o[31] 0.00113974
8 *788:wbs_dat_i[31] wbs_dat_o[31] 0
9 *593:9 wbs_dat_o[31] 0.000210652
10 *593:13 wbs_dat_o[31] 0.000854237
11 *597:13 wbs_dat_o[31] 0.00573229
12 *599:13 wbs_dat_o[31] 0.000331544
13 *600:11 wbs_dat_o[31] 0.000513678
14 *627:11 wbs_dat_o[31] 0.00208128
15 *631:28 wbs_dat_o[31] 4.14081e-06
16 *631:30 wbs_dat_o[31] 0.000717887
*RES
1 *788:wbs_dat_o[31] wbs_dat_o[31] 34.7806 
*END

*D_NET *633 0.0123388
*CONN
*P wbs_dat_o[3] O
*I *788:wbs_dat_o[3] O *D afe_wb
*CAP
1 wbs_dat_o[3] 0.00196191
2 *788:wbs_dat_o[3] 0.00401538
3 *633:5 0.00597729
4 wbs_dat_o[3] *635:5 3.43307e-05
5 wbs_dat_o[3] *642:13 0.000134469
6 *633:5 *788:wbs_sel_i[3] 0
7 wbs_dat_o[2] *633:5 0
8 *788:wbs_dat_i[3] *633:5 0
9 *601:13 wbs_dat_o[3] 0
10 *602:13 wbs_dat_o[3] 0
11 *603:13 wbs_dat_o[3] 0.000215389
*RES
1 *788:wbs_dat_o[3] *633:5 72.9825 
2 *633:5 wbs_dat_o[3] 17.5586 
*END

*D_NET *634 0.0146315
*CONN
*P wbs_dat_o[4] O
*I *788:wbs_dat_o[4] O *D afe_wb
*CAP
1 wbs_dat_o[4] 0.00156701
2 *788:wbs_dat_o[4] 0.00423999
3 *634:5 0.005807
4 wbs_dat_o[4] wbs_dat_o[5] 0
5 *788:wbs_adr_i[5] *634:5 0
6 *788:wbs_dat_i[4] *634:5 0
7 *569:17 wbs_dat_o[4] 0
8 *570:13 wbs_dat_o[4] 0
9 *601:13 wbs_dat_o[4] 0.000302863
10 *602:13 wbs_dat_o[4] 0.00257427
11 *605:13 wbs_dat_o[4] 0.000140366
*RES
1 *788:wbs_dat_o[4] *634:5 77.0625 
2 *634:5 wbs_dat_o[4] 14.8724 
*END

*D_NET *635 0.0153015
*CONN
*P wbs_dat_o[5] O
*I *788:wbs_dat_o[5] O *D afe_wb
*CAP
1 wbs_dat_o[5] 0.0019145
2 *788:wbs_dat_o[5] 0.00413625
3 *635:5 0.00605076
4 wbs_dat_o[3] *635:5 3.43307e-05
5 wbs_dat_o[4] wbs_dat_o[5] 0
6 *788:wbs_dat_i[5] *635:5 0
7 *602:13 wbs_dat_o[5] 0.00036304
8 *603:13 wbs_dat_o[5] 0.00280265
9 *605:13 wbs_dat_o[5] 0
*RES
1 *788:wbs_dat_o[5] *635:5 74.0025 
2 *635:5 wbs_dat_o[5] 18.7482 
*END

*D_NET *636 0.0170138
*CONN
*P wbs_dat_o[6] O
*I *788:wbs_dat_o[6] O *D afe_wb
*CAP
1 wbs_dat_o[6] 0.000602952
2 *788:wbs_dat_o[6] 0.00294264
3 *636:17 0.00349676
4 *636:15 0.00583645
5 *788:wbs_adr_i[11] *636:15 0.000500093
6 *788:wbs_adr_i[7] *636:15 0.00363491
7 *788:wbs_dat_i[11] wbs_dat_o[6] 0
8 *788:wbs_dat_i[11] *636:15 0
9 *788:wbs_dat_i[11] *636:17 0
10 *788:wbs_dat_i[6] *636:15 0
11 *571:17 *636:15 0
12 *572:9 wbs_dat_o[6] 0
13 *609:5 *636:15 0
14 *609:5 *636:17 0
*RES
1 *788:wbs_dat_o[6] *636:15 32.337 
2 *636:15 *636:17 51.855 
3 *636:17 wbs_dat_o[6] 10.8825 
*END

*D_NET *637 0.0152
*CONN
*P wbs_dat_o[7] O
*I *788:wbs_dat_o[7] O *D afe_wb
*CAP
1 wbs_dat_o[7] 0.00488961
2 *788:wbs_dat_o[7] 0.00271039
3 *637:7 0.00759999
4 wbs_dat_o[7] wbs_dat_o[8] 0
5 *788:wbs_adr_i[8] *637:7 0
6 *788:wbs_dat_i[12] wbs_dat_o[7] 0
7 *788:wbs_dat_i[7] *637:7 0
8 *573:13 wbs_dat_o[7] 0
9 *574:17 wbs_dat_o[7] 0
*RES
1 *788:wbs_dat_o[7] *637:7 48.4925 
2 *637:7 wbs_dat_o[7] 45.4327 
*END

*D_NET *638 0.0169053
*CONN
*P wbs_dat_o[8] O
*I *788:wbs_dat_o[8] O *D afe_wb
*CAP
1 wbs_dat_o[8] 0.00537581
2 *788:wbs_dat_o[8] 0.00294519
3 *638:5 0.008321
4 wbs_dat_o[13] wbs_dat_o[8] 0
5 wbs_dat_o[7] wbs_dat_o[8] 0
6 *788:wbs_adr_i[14] wbs_dat_o[8] 0.000263319
7 *788:wbs_adr_i[9] *638:5 0
8 *788:wbs_dat_i[14] wbs_dat_o[8] 0
9 *788:wbs_dat_i[8] *638:5 0
*RES
1 *788:wbs_dat_o[8] *638:5 53.0925 
2 *638:5 wbs_dat_o[8] 41.9352 
*END

*D_NET *639 0.0197251
*CONN
*P wbs_dat_o[9] O
*I *788:wbs_dat_o[9] O *D afe_wb
*CAP
1 wbs_dat_o[9] 0.00309175
2 *788:wbs_dat_o[9] 0.0040984
3 *639:5 0.00719015
4 wbs_dat_o[11] wbs_dat_o[9] 0
5 *788:wbs_adr_i[10] *639:5 0
6 *788:wbs_dat_i[9] *639:5 0
7 *571:9 *639:5 0
8 *571:17 *639:5 0
9 *582:13 wbs_dat_o[9] 0.000359977
10 *605:13 wbs_dat_o[9] 0
11 *607:13 wbs_dat_o[9] 0.00498485
*RES
1 *788:wbs_dat_o[9] *639:5 73.4925 
2 *639:5 wbs_dat_o[9] 22.4092 
*END

*D_NET *640 0.00953484
*CONN
*P wbs_sel_i[0] I
*I *788:wbs_sel_i[0] I *D afe_wb
*CAP
1 wbs_sel_i[0] 0.000322097
2 *788:wbs_sel_i[0] 0.00444532
3 *640:13 0.00476742
4 *608:5 *788:wbs_sel_i[0] 0
*RES
1 wbs_sel_i[0] *640:13 6.4425 
2 *640:13 *788:wbs_sel_i[0] 81.1425 
*END

*D_NET *641 0.0106667
*CONN
*P wbs_sel_i[1] I
*I *788:wbs_sel_i[1] I *D afe_wb
*CAP
1 wbs_sel_i[1] 0.00191717
2 *788:wbs_sel_i[1] 0.00283126
3 *641:13 0.00474843
4 *788:wbs_adr_i[2] *788:wbs_sel_i[1] 0
5 *788:wbs_dat_i[2] *641:13 0.00116988
6 *565:13 *641:13 0
7 *630:5 *641:13 0
*RES
1 wbs_sel_i[1] *641:13 38.0176 
2 *641:13 *788:wbs_sel_i[1] 50.5425 
*END

*D_NET *642 0.0125338
*CONN
*P wbs_sel_i[2] I
*I *788:wbs_sel_i[2] I *D afe_wb
*CAP
1 wbs_sel_i[2] 0.00155816
2 *788:wbs_sel_i[2] 0.00366841
3 *642:13 0.00522656
4 *642:13 *788:wbs_sel_i[3] 0
5 wbs_dat_o[2] *642:13 0
6 wbs_dat_o[3] *642:13 0.000134469
7 *788:wbs_adr_i[3] *788:wbs_sel_i[2] 0
8 *565:13 *788:wbs_sel_i[2] 0.0014202
9 *569:17 *642:13 0.000525992
10 *630:5 *788:wbs_sel_i[2] 0
*RES
1 wbs_sel_i[2] *642:13 19.0114 
2 *642:13 *788:wbs_sel_i[2] 70.9425 
*END

*D_NET *643 0.0136456
*CONN
*P wbs_sel_i[3] I
*I *788:wbs_sel_i[3] I *D afe_wb
*CAP
1 wbs_sel_i[3] 0.00120374
2 *788:wbs_sel_i[3] 0.00427341
3 *643:13 0.00547715
4 wbs_dat_o[2] *788:wbs_sel_i[3] 0.000731276
5 *788:wbs_adr_i[4] *788:wbs_sel_i[3] 0
6 *568:11 *643:13 0
7 *569:17 *788:wbs_sel_i[3] 0
8 *569:17 *643:13 0.00195999
9 *601:13 *643:13 0
10 *633:5 *788:wbs_sel_i[3] 0
11 *642:13 *788:wbs_sel_i[3] 0
*RES
1 wbs_sel_i[3] *643:13 8.6117 
2 *643:13 *788:wbs_sel_i[3] 82.1625 
*END

*D_NET *644 0.0110836
*CONN
*P wbs_stb_i I
*I *788:wbs_stb_i I *D afe_wb
*CAP
1 wbs_stb_i 0.00146488
2 *788:wbs_stb_i 0.000751411
3 *644:11 0.00372998
4 *644:9 0.00444345
5 *788:wbs_stb_i *645:7 0
6 *788:wb_clk_i *644:11 0
7 *788:wb_rst_i *644:11 0.000451355
8 *788:wbs_cyc_i *788:wbs_stb_i 0
9 *542:11 *788:wbs_stb_i 0.000242555
*RES
1 wbs_stb_i *644:9 26.7525 
2 *644:9 *644:11 57.105 
3 *644:11 *788:wbs_stb_i 5.94237 
*END

*D_NET *645 0.0101395
*CONN
*P wbs_we_i I
*I *788:wbs_we_i I *D afe_wb
*CAP
1 wbs_we_i 5.99008e-05
2 *788:wbs_we_i 0.000319185
3 *645:7 0.00500984
4 *645:5 0.00475056
5 *788:wbs_stb_i *645:7 0
6 *542:11 *645:7 0
*RES
1 wbs_we_i *645:5 1.0875 
2 *645:5 *645:7 85.275 
3 *645:7 *788:wbs_we_i 1.85373 
*END

*D_NET *646 0.179448
*CONN
*I *788:adc_data[0] I *D afe_wb
*I *789:data_out[0] O *D CF_ADC_SAR12
*CAP
1 *788:adc_data[0] 0.00925281
2 *789:data_out[0] 2.4184e-05
3 *646:23 0.0103223
4 *646:13 0.0298309
5 *646:11 0.0287614
6 *646:9 0.0171416
7 *646:7 0.0171658
8 *788:adc_data[0] *788:adc_data[1] 0.000438438
9 *788:adc_data[0] *788:adc_data[4] 0.0174246
10 *788:adc_data[0] *788:adc_data[5] 0.00865099
11 *646:7 *650:11 2.38042e-05
12 *646:7 *658:7 4.06898e-05
13 *646:9 *789:sample_width[3] 0.00205046
14 *646:9 *789:sample_width[4] 0.00341111
15 *646:9 *789:cap_trim[1] 0.000236896
16 *646:9 *789:dft_inc[3] 0.00222963
17 *646:9 *789:dft_inc[1] 0
18 *646:9 *789:icont_lv[0] 0.000443289
19 *646:9 *789:enable_hv 0.00121974
20 *646:9 *791:CurrAbsTrim[2] 0.0004563
21 *646:9 *648:9 0.026487
22 *646:9 *648:23 0.000454306
23 *646:9 *655:19 0.000205053
24 *646:9 *748:23 0.000219491
25 *646:9 *749:23 0
26 *646:23 *788:adc_data[11] 0.000103307
27 *646:23 *647:17 0.00110155
28 *646:23 *652:21 0.000515537
29 *646:23 *653:37 0
30 *646:23 *769:23 0.000430912
31 *646:23 *781:32 0.000157996
32 *789:refclk *646:9 0.000647737
*RES
1 *789:data_out[0] *646:7 2.69 
2 *646:7 *646:9 382.538 
3 *646:9 *646:11 2 
4 *646:11 *646:13 500.415 
5 *646:13 *646:23 29.4825 
6 *646:23 *788:adc_data[0] 41.8491 
*END

*D_NET *647 0.168117
*CONN
*I *788:adc_data[10] I *D afe_wb
*I *789:data_out[10] O *D CF_ADC_SAR12
*CAP
1 *788:adc_data[10] 0.00074834
2 *789:data_out[10] 0.000646473
3 *647:17 0.015214
4 *647:15 0.0144657
5 *647:13 0.017233
6 *647:11 0.0178795
7 *788:adc_data[10] *788:adc_data[11] 0.000432589
8 *788:adc_data[10] *788:adc_data[4] 0.00255308
9 *788:adc_data[10] *665:27 5.56205e-06
10 *788:adc_data[10] *763:15 4.70358e-05
11 *788:adc_data[10] *769:23 0.0024166
12 *788:adc_data[10] *781:32 0.000596201
13 *647:11 *789:iso_en 0.000337995
14 *647:11 *648:7 4.68259e-05
15 *647:11 *648:9 5.70982e-05
16 *647:11 *652:15 0.00182155
17 *647:11 *656:21 2.67254e-05
18 *647:13 *676:9 0.0447004
19 *647:13 *742:9 0
20 *647:17 *652:21 0.0459892
21 *647:17 *653:37 0
22 *647:17 *743:33 0.000525441
23 *647:17 *761:23 0.00105319
24 *647:17 *769:23 0.00013827
25 *647:17 *781:32 8.09959e-05
26 *646:23 *647:17 0.00110155
*RES
1 *789:data_out[10] *647:11 21.2838 
2 *647:11 *647:13 500.16 
3 *647:13 *647:15 2 
4 *647:15 *647:17 417.21 
5 *647:17 *788:adc_data[10] 10.1772 
*END

*D_NET *648 0.172584
*CONN
*I *788:adc_data[11] I *D afe_wb
*I *789:data_out[11] O *D CF_ADC_SAR12
*CAP
1 *788:adc_data[11] 0.000191473
2 *789:data_out[11] 3.59668e-05
3 *648:25 0.0239613
4 *648:23 0.0293685
5 *648:9 0.0146655
6 *648:7 0.00910282
7 *788:adc_data[11] *763:15 0.000777791
8 *648:7 *789:iso_en 3.44331e-05
9 *648:7 *789:next 1.08194e-05
10 *648:7 *656:21 0
11 *648:9 *789:sample_width[3] 0.00112456
12 *648:9 *789:sample_width[4] 0.00156329
13 *648:9 *789:scan_test_mode 0.000102815
14 *648:9 *789:cap_trim[2] 0.000181246
15 *648:9 *789:dft_inc[1] 0
16 *648:9 *789:dft_outc[0] 0.00054108
17 *648:9 *789:enable_hv 0.000825117
18 *648:9 *652:15 0.000444216
19 *648:9 *655:19 0.000102527
20 *648:23 *789:en_pump_lv 0.00012105
21 *648:23 *789:dft_inc[3] 0.00526609
22 *648:23 *789:icont_lv[0] 0.00843694
23 *648:23 *789:dft_outc[0] 2.35067e-05
24 *648:23 *791:trimCurr[1] 0
25 *648:23 *791:CurrAbsTrim[2] 0.00205821
26 *648:23 *658:9 0
27 *648:23 *748:23 0.000361092
28 *648:23 *749:23 0
29 *648:25 *665:29 0.0355747
30 *648:25 *699:21 4.21784e-05
31 *788:adc_data[10] *788:adc_data[11] 0.000432589
32 *789:refclk *648:9 0.000365566
33 *6:22 *648:25 0.00971997
34 *646:9 *648:9 0.026487
35 *646:9 *648:23 0.000454306
36 *646:23 *788:adc_data[11] 0.000103307
37 *647:11 *648:7 4.68259e-05
38 *647:11 *648:9 5.70982e-05
*RES
1 *789:data_out[11] *648:7 2.945 
2 *648:7 *648:9 249.023 
3 *648:9 *648:23 29.5568 
4 *648:23 *648:25 84.6209 
5 *648:25 *788:adc_data[11] 2.1742 
*END

*D_NET *649 0.1579
*CONN
*I *788:adc_data[1] I *D afe_wb
*I *789:data_out[1] O *D CF_ADC_SAR12
*CAP
1 *788:adc_data[1] 0.00470303
2 *789:data_out[1] 7.10834e-05
3 *649:14 0.0484662
4 *649:12 0.0437632
5 *649:10 0.0185958
6 *649:8 0.0186669
7 *649:10 *789:test_sea 0
8 *649:10 *653:23 0.00117589
9 *649:10 *656:23 0.021904
10 *649:10 *691:9 0.000115861
11 *649:10 *692:17 0
12 *649:10 *692:33 0
13 *649:14 *698:15 0
14 *788:adc_data[0] *788:adc_data[1] 0.000438438
*RES
1 *789:data_out[1] *649:8 1.1368 
2 *649:8 *649:10 71.2703 
3 *649:10 *649:12 0.5 
4 *649:12 *649:14 105.035 
5 *649:14 *788:adc_data[1] 15.7572 
*END

*D_NET *650 0.15679
*CONN
*I *788:adc_data[2] I *D afe_wb
*I *789:data_out[2] O *D CF_ADC_SAR12
*CAP
1 *788:adc_data[2] 0.0280185
2 *789:data_out[2] 0.000504887
3 *650:15 0.0280185
4 *650:13 0.0226487
5 *650:11 0.0231536
6 *650:11 *651:15 3.93132e-05
7 *650:11 *652:15 3.63701e-06
8 *650:11 *658:7 0
9 *650:13 *791:trimTC[5] 0.00457071
10 *650:13 *791:trimTC[4] 0.00145231
11 *650:13 *793:ch_cont 0.00342041
12 *650:13 *670:19 0.000354289
13 *650:13 *748:23 0.000788435
14 *5:14 *650:13 0
15 *18:26 *650:13 0.000637881
16 *18:32 *650:13 0.0029801
17 *22:14 *650:13 0.0154599
18 *22:30 *650:13 0.0102407
19 *23:20 *650:13 0.0141559
20 *25:16 *650:13 0.000317943
21 *646:7 *650:11 2.38042e-05
*RES
1 *789:data_out[2] *650:11 8.9975 
2 *650:11 *650:13 102.296 
3 *650:13 *650:15 0.5 
4 *650:15 *788:adc_data[2] 509.543 
*END

*D_NET *651 0.164252
*CONN
*I *788:adc_data[3] I *D afe_wb
*I *789:data_out[3] O *D CF_ADC_SAR12
*CAP
1 *788:adc_data[3] 0.00233769
2 *789:data_out[3] 0.000805329
3 *651:21 0.0401401
4 *651:19 0.0378025
5 *651:17 0.0187645
6 *651:15 0.0195698
7 *651:15 *789:scan_test_mode 0.000361064
8 *651:15 *789:test_scanin 5.87667e-05
9 *651:15 *789:test_scanen 1.45731e-05
10 *651:15 *789:sel_csel_dft[0] 4.21127e-05
11 *651:15 *789:sel_csel_dft[2] 3.14274e-05
12 *651:15 *789:sof 0.000621754
13 *651:15 *652:15 3.49204e-05
14 *651:15 *654:15 0.000192685
15 *651:15 *655:19 0.000965707
16 *651:17 *789:test_scanen 0
17 *651:17 *701:9 0.04247
18 *651:17 *731:17 0
19 *651:17 *733:17 0
20 *650:11 *651:15 3.93132e-05
*RES
1 *789:data_out[3] *651:15 4.50117 
2 *651:15 *651:17 77.8164 
3 *651:17 *651:19 0.5 
4 *651:19 *651:21 95.7993 
5 *651:21 *788:adc_data[3] 41.3525 
*END

*D_NET *652 0.196018
*CONN
*I *788:adc_data[4] I *D afe_wb
*I *789:data_out[4] O *D CF_ADC_SAR12
*CAP
1 *788:adc_data[4] 0.00552844
2 *789:data_out[4] 0.00126654
3 *652:21 0.0212481
4 *652:19 0.0157197
5 *652:17 0.0172252
6 *652:15 0.0184917
7 *788:adc_data[4] *788:adc_data[5] 6.71398e-05
8 *788:adc_data[4] *732:15 0
9 *788:adc_data[4] *763:15 0.00023868
10 *788:adc_data[4] *781:32 0.0014785
11 *652:15 *789:iso_en 0.00067599
12 *652:15 *653:23 4.42283e-05
13 *652:17 *687:9 0.0445793
14 *652:17 *747:9 0
15 *652:21 *758:15 0.000346427
16 *652:21 *781:32 0.000321094
17 *788:adc_data[0] *788:adc_data[4] 0.0174246
18 *788:adc_data[10] *788:adc_data[4] 0.00255308
19 *646:23 *652:21 0.000515537
20 *647:11 *652:15 0.00182155
21 *647:17 *652:21 0.0459892
22 *648:9 *652:15 0.000444216
23 *650:11 *652:15 3.63701e-06
24 *651:15 *652:15 3.49204e-05
*RES
1 *789:data_out[4] *652:15 32.86 
2 *652:15 *652:17 499.65 
3 *652:17 *652:19 2 
4 *652:19 *652:21 429.975 
5 *652:21 *788:adc_data[4] 33.4176 
*END

*D_NET *653 0.139312
*CONN
*I *788:adc_data[5] I *D afe_wb
*I *789:data_out[5] O *D CF_ADC_SAR12
*CAP
1 *788:adc_data[5] 0.00610195
2 *789:data_out[5] 0.00483111
3 *653:37 0.025449
4 *653:35 0.019722
5 *653:25 0.0227587
6 *653:23 0.0272148
7 *788:adc_data[5] *665:27 3.05521e-05
8 *788:adc_data[5] *762:27 0.0014787
9 *788:adc_data[5] *763:15 0.0015563
10 *788:adc_data[5] *766:17 0.00024444
11 *653:23 *789:sof 0.000235105
12 *653:23 *789:test_sea 0
13 *653:23 *654:15 0.000235105
14 *653:23 *656:23 0.000321165
15 *653:25 *713:9 0.017777
16 *653:37 *761:23 0
17 *653:37 *762:27 0.000276056
18 *653:37 *763:15 0.000490083
19 *653:37 *769:23 0
20 *653:37 *775:31 0
21 *653:37 *781:32 0.000651624
22 *788:adc_data[0] *788:adc_data[5] 0.00865099
23 *788:adc_data[4] *788:adc_data[5] 6.71398e-05
24 *646:23 *653:37 0
25 *647:17 *653:37 0
26 *649:10 *653:23 0.00117589
27 *652:15 *653:23 4.42283e-05
*RES
1 *789:data_out[5] *653:23 16.0159 
2 *653:23 *653:25 81.2617 
3 *653:25 *653:35 4.25383 
4 *653:35 *653:37 336.825 
5 *653:37 *788:adc_data[5] 28.4273 
*END

*D_NET *654 0.18433
*CONN
*I *788:adc_data[6] I *D afe_wb
*I *789:data_out[6] O *D CF_ADC_SAR12
*CAP
1 *788:adc_data[6] 0.00283957
2 *789:data_out[6] 0.00075389
3 *654:23 0.00283957
4 *654:21 0.0230696
5 *654:19 0.0230696
6 *654:17 0.0160149
7 *654:15 0.0167688
8 *654:15 *789:test_scanin 0.00049795
9 *654:15 *789:test_scanen 4.00045e-05
10 *654:15 *789:sel_csel_dft[0] 1.19249e-05
11 *654:15 *789:sel_csel_dft[2] 2.21844e-05
12 *654:15 *789:sof 0.000338871
13 *654:15 *789:test_sea 3.92756e-05
14 *654:15 *789:reset_n 0.0010455
15 *654:15 *789:next 0.000271628
16 *654:15 *655:19 3.49706e-05
17 *654:15 *656:21 9.73366e-06
18 *654:15 *658:9 0.00103953
19 *654:17 *701:9 0.00533527
20 *654:17 *702:9 0.0416338
21 *654:21 *657:18 0.048226
22 *651:15 *654:15 0.000192685
23 *653:23 *654:15 0.000235105
*RES
1 *789:data_out[6] *654:15 7.6208 
2 *654:15 *654:17 76.4383 
3 *654:17 *654:19 0.5 
4 *654:19 *654:21 83.6798 
5 *654:21 *654:23 0.5 
6 *654:23 *788:adc_data[6] 51.0525 
*END

*D_NET *655 0.136297
*CONN
*I *788:adc_data[7] I *D afe_wb
*I *789:data_out[7] O *D CF_ADC_SAR12
*CAP
1 *788:adc_data[7] 0.000572977
2 *789:data_out[7] 0.00184842
3 *655:25 0.0315565
4 *655:23 0.0309835
5 *655:21 0.0314869
6 *655:19 0.0333353
7 *655:19 *789:scan_test_mode 2.52967e-05
8 *655:19 *789:test_scanin 0.000114327
9 *655:19 *789:sof 0.000388046
10 *655:19 *656:21 0.000120524
11 *655:19 *658:9 0
12 *655:21 *789:resolution[0] 0
13 *655:21 *702:9 0
14 *655:21 *705:17 0
15 *655:21 *706:17 0
16 *655:21 *733:9 0.00372687
17 *655:25 *732:15 0
18 *655:25 *754:17 0
19 *655:25 *768:15 0.000738998
20 *655:25 *774:15 0
21 *655:25 *777:17 0
22 *15:16 *655:19 9.11742e-05
23 *646:9 *655:19 0.000205053
24 *648:9 *655:19 0.000102527
25 *651:15 *655:19 0.000965707
26 *654:15 *655:19 3.49706e-05
*RES
1 *789:data_out[7] *655:19 8.4411 
2 *655:19 *655:21 82.8983 
3 *655:21 *655:23 0.5 
4 *655:23 *655:25 78.5523 
5 *655:25 *788:adc_data[7] 10.2425 
*END

*D_NET *656 0.140473
*CONN
*I *788:adc_data[8] I *D afe_wb
*I *789:data_out[8] O *D CF_ADC_SAR12
*CAP
1 *788:adc_data[8] 0.00457208
2 *789:data_out[8] 0.000400365
3 *656:29 0.00457208
4 *656:27 0.0316658
5 *656:25 0.0316658
6 *656:23 0.0109298
7 *656:21 0.0113301
8 *656:21 *789:sof 0.000243031
9 *656:21 *789:next 0.000348193
10 *656:23 *691:9 0.0223637
11 *656:27 *698:15 0
12 *647:11 *656:21 2.67254e-05
13 *648:7 *656:21 0
14 *649:10 *656:23 0.021904
15 *653:23 *656:23 0.000321165
16 *654:15 *656:21 9.73366e-06
17 *655:19 *656:21 0.000120524
*RES
1 *789:data_out[8] *656:21 5.54443 
2 *656:21 *656:23 70.9257 
3 *656:23 *656:25 0.5 
4 *656:25 *656:27 79.4846 
5 *656:27 *656:29 0.5 
6 *656:29 *788:adc_data[8] 82.1625 
*END

*D_NET *657 0.154608
*CONN
*I *788:adc_data[9] I *D afe_wb
*I *789:data_out[9] O *D CF_ADC_SAR12
*CAP
1 *788:adc_data[9] 0.0029065
2 *789:data_out[9] 0.00990385
3 *657:20 0.0029065
4 *657:18 0.0200764
5 *657:16 0.0316952
6 *657:12 0.0215226
7 *657:12 *789:vrefhi 0
8 *657:12 *789:ibias2p5u_1 0
9 *657:12 *659:65 0.000172424
10 *657:12 *659:73 0
11 *657:12 *662:28 0
12 *657:12 *663:21 0
13 *657:12 *691:9 0.000723755
14 *657:16 *691:9 0.00890599
15 *15:16 *657:12 0.00756892
16 *654:21 *657:18 0.048226
*RES
1 *789:data_out[9] *657:12 35.4654 
2 *657:12 *657:16 41.1727 
3 *657:16 *657:18 76.2217 
4 *657:18 *657:20 0.5 
5 *657:20 *788:adc_data[9] 51.5625 
*END

*D_NET *658 0.163113
*CONN
*I *788:adc_eof I *D afe_wb
*I *789:eof O *D CF_ADC_SAR12
*CAP
1 *788:adc_eof 1.47198e-05
2 *789:eof 0.000200454
3 *658:13 0.0294493
4 *658:11 0.0294346
5 *658:9 0.0100893
6 *658:7 0.0102898
7 *788:adc_eof *699:19 8.14646e-05
8 *788:adc_eof *763:15 8.59615e-05
9 *658:7 *789:reset_n 0
10 *658:9 *789:sample_width[4] 0.00208211
11 *658:9 *789:sample_width[8] 6.91911e-05
12 *658:9 *789:sample_width[9] 1.70579e-05
13 *658:9 *789:test_scanin 1.75162e-05
14 *658:9 *789:reset_n 0.000300092
15 *658:9 *789:cap_trim[2] 3.10034e-05
16 *658:9 *789:dft_inc[3] 0.00264235
17 *658:9 *789:dft_inc[2] 0.00334378
18 *658:9 *789:dft_inc[1] 0.00741561
19 *658:9 *789:enable_hv 0.00205777
20 *658:9 *791:CurrAbsTrim[2] 0.000386588
21 *658:9 *791:trimTC[2] 0.000850399
22 *658:9 *749:23 0.00440806
23 *658:13 *761:25 0.00816775
24 *658:13 *768:17 0.0169975
25 *658:13 *780:10 0
26 *658:13 *784:18 0.00598094
27 *2:30 *658:9 0.0239269
28 *18:65 *658:9 0.003693
29 *646:7 *658:7 4.06898e-05
30 *648:23 *658:9 0
31 *650:11 *658:7 0
32 *654:15 *658:9 0.00103953
33 *655:19 *658:9 0
*RES
1 *789:eof *658:7 3.6125 
2 *658:7 *658:9 63.5195 
3 *658:9 *658:11 0.5 
4 *658:11 *658:13 85.2239 
5 *658:13 *788:adc_eof 1.1254 
*END

*D_NET *659 0.173938
*CONN
*I *790:IREF_VCMBUF I *D CF_ADC_SAR12_sar_refs
*I *790:IREF_VREFBUF I *D CF_ADC_SAR12_sar_refs
*I *789:ibias2p5u_1 I *D CF_ADC_SAR12
*I *789:ibias2p5u I *D CF_ADC_SAR12
*I *792:ibias I *D CF_BUF_HIZ
*I *791:ibg_2p375uA O *D CF_BGR
*CAP
1 *790:IREF_VCMBUF 0.000181173
2 *790:IREF_VREFBUF 0.000295111
3 *789:ibias2p5u_1 0.000152546
4 *789:ibias2p5u 5.90107e-05
5 *792:ibias 0.000219955
6 *791:ibg_2p375uA 0.000118548
7 *659:114 0.00998119
8 *659:98 0.029663
9 *659:73 0.00032817
10 *659:69 0.000180229
11 *659:65 0.020442
12 *659:57 0.0321093
13 *659:55 0.0315562
14 *659:48 9.27141e-05
15 *659:32 0.021782
16 *659:11 0.0217437
17 *790:IREF_VCMBUF *662:22 0.000156699
18 *659:11 *660:5 3.56505e-05
19 *659:32 *664:16 0.000507378
20 *659:114 *790:vref[4] 0
21 *659:114 *790:vref[1] 0.000132944
22 *659:114 *790:vref[0] 0
23 *659:114 *661:20 0
24 *659:114 *662:22 0
25 *789:vreflo *659:65 0
26 *791:dft_curr_in *659:11 9.18833e-06
27 *13:20 *659:32 0.0033515
28 *14:16 *659:114 0.000417537
29 *15:22 *659:57 0.000209211
30 *15:22 *659:65 4.02177e-05
31 *657:12 *789:ibias2p5u_1 0
32 *657:12 *659:65 0.000172424
33 *657:12 *659:73 0
*RES
1 *791:ibg_2p375uA *659:11 2.9075 
2 *659:11 *659:32 46.0927 
3 *659:32 *792:ibias 3.2075 
4 *792:ibias *659:48 1.36125 
5 *659:48 *659:55 0.6475 
6 *659:55 *659:57 58.2006 
7 *659:57 *659:65 2.0061 
8 *659:65 *659:69 0.599524 
9 *659:69 *659:73 0.3287 
10 *659:73 *789:ibias2p5u 0.210267 
11 *659:73 *789:ibias2p5u_1 0.604833 
12 *659:65 *659:98 35.7857 
13 *659:98 *659:114 21.5077 
14 *659:114 *790:IREF_VREFBUF 0.323633 
15 *790:IREF_VREFBUF *790:IREF_VCMBUF 0.7353 
*END

*D_NET *660 0.0518079
*CONN
*I *793:nbias I *D CF_REFBUF
*I *791:ibg_3uA O *D CF_BGR
*CAP
1 *793:nbias 5.08064e-05
2 *791:ibg_3uA 5.54147e-05
3 *660:22 0.00228877
4 *660:16 0.0255299
5 *660:5 0.0233473
6 *660:5 *664:7 6.03333e-05
7 *660:16 *664:7 5.9004e-05
8 *660:16 *664:16 0.000380682
9 *659:11 *660:5 3.56505e-05
*RES
1 *791:ibg_3uA *660:5 1.4325 
2 *660:5 *660:16 48.2067 
3 *660:16 *660:22 26.8175 
4 *660:22 *793:nbias 1.0875 
*END

*D_NET *661 0.102227
*CONN
*I *789:refby2 I *D CF_ADC_SAR12
*I *790:REFBY2 O *D CF_ADC_SAR12_sar_refs
*CAP
1 *789:refby2 0.000176047
2 *790:REFBY2 9.49157e-05
3 *661:26 0.000554527
4 *661:22 0.0348755
5 *661:20 0.0504221
6 *661:5 0.0160201
7 *789:refby2 *725:9 0
8 *789:refby2 *755:9 0
9 *661:5 *790:vref[1] 6.3121e-05
10 *661:26 *725:9 0
11 *661:26 *755:9 0
12 *14:16 *661:20 2.10589e-05
13 *659:114 *661:20 0
*RES
1 *790:REFBY2 *661:5 0.320467 
2 *661:5 *661:20 31.547 
3 *661:20 *661:22 64.4643 
4 *661:22 *661:26 1.16862 
5 *661:26 *789:refby2 0.472467 
*END

*D_NET *662 0.0595309
*CONN
*I *789:vrefhi I *D CF_ADC_SAR12
*I *790:REFHI O *D CF_ADC_SAR12_sar_refs
*CAP
1 *789:vrefhi 0.00020172
2 *790:REFHI 0.000335335
3 *662:28 0.0146472
4 *662:22 0.029039
5 *662:7 0.0149288
6 *662:22 *790:vref[4] 8.20096e-05
7 *662:22 *790:vref[3] 0.000140149
8 *790:IREF_VCMBUF *662:22 0.000156699
9 *657:12 *789:vrefhi 0
10 *657:12 *662:28 0
11 *659:114 *662:22 0
*RES
1 *790:REFHI *662:7 0.711233 
2 *662:7 *662:22 29.7675 
3 *662:22 *662:28 27.5406 
4 *662:28 *789:vrefhi 0.656133 
*END

*D_NET *663 0.0910285
*CONN
*I *789:vinp I *D CF_ADC_SAR12
*I *792:vout O *D CF_BUF_HIZ
*CAP
1 *789:vinp 0.000100973
2 *792:vout 0
3 *663:21 0.000609773
4 *663:17 0.0351223
5 *663:15 0.0346135
6 *663:13 0.00952538
7 *663:11 0.0100076
8 *663:4 0.000482201
9 *5:28 *663:17 0
10 *12:42 *663:13 0.000566808
11 *13:20 *663:17 0
12 *657:12 *663:21 0
*RES
1 *792:vout *663:4 0.5 
2 *663:4 *663:11 1.30795 
3 *663:11 *663:13 57.565 
4 *663:13 *663:15 0.5 
5 *663:15 *663:17 60.1151 
6 *663:17 *663:21 1.36857 
7 *663:21 *789:vinp 0.752067 
*END

*D_NET *664 0.0573109
*CONN
*I *793:ref_1v2 I *D CF_REFBUF
*I *791:Vout O *D CF_BGR
*CAP
1 *793:ref_1v2 0
2 *791:Vout 6.28085e-05
3 *664:24 0.00319073
4 *664:16 0.028089
5 *664:7 0.024961
6 *659:32 *664:16 0.000507378
7 *660:5 *664:7 6.03333e-05
8 *660:16 *664:7 5.9004e-05
9 *660:16 *664:16 0.000380682
*RES
1 *791:Vout *664:7 1.965 
2 *664:7 *664:16 49.5687 
3 *664:16 *664:24 12.6777 
4 *664:24 *793:ref_1v2 0.5 
*END

*D_NET *665 0.110061
*CONN
*I *792:e_pd I *D CF_BUF_HIZ
*I *788:analog_ctrl[0] O *D afe_wb
*CAP
1 *792:e_pd 0.0018503
2 *788:analog_ctrl[0] 0.00289737
3 *665:29 0.00905984
4 *665:27 0.0101069
5 *792:e_pd *792:en_pd 0.00383978
6 *665:27 *699:19 0.0025057
7 *665:27 *721:23 0.00234986
8 *665:27 *762:27 0.00111116
9 *665:27 *763:15 0.00221386
10 *665:27 *766:17 0.000175853
11 *665:27 *768:9 0.00199355
12 *665:27 *769:23 0.000273102
13 *665:27 *775:19 4.17092e-05
14 *665:27 *781:20 0.000454539
15 *665:29 *699:21 0.0355766
16 *788:adc_data[10] *665:27 5.56205e-06
17 *788:adc_data[5] *665:27 3.05521e-05
18 *648:25 *665:29 0.0355747
*RES
1 *788:analog_ctrl[0] *665:27 35.7793 
2 *665:27 *665:29 65.1548 
3 *665:29 *792:e_pd 12.8726 
*END

*D_NET *670 0.129094
*CONN
*I *793:pd I *D CF_REFBUF
*I *788:analog_ctrl[104] O *D afe_wb
*CAP
1 *793:pd 0.00201716
2 *788:analog_ctrl[104] 0.00502222
3 *670:21 0.00565269
4 *670:19 0.00417245
5 *670:9 0.0365135
6 *670:7 0.0409988
7 *793:pd *793:ch_cont 0.00313925
8 *670:7 *671:17 0
9 *670:7 *672:7 0
10 *670:9 *783:17 0.0263845
11 *4:18 *793:pd 0.000460216
12 *7:6 *793:pd 0.000216897
13 *12:14 *670:21 0.00305157
14 *22:14 *793:pd 0.000207396
15 *22:14 *670:19 0.00020824
16 *29:38 *670:21 0.000694725
17 *650:13 *670:19 0.000354289
*RES
1 *788:analog_ctrl[104] *670:7 13.1046 
2 *670:7 *670:9 126.137 
3 *670:9 *670:19 10.9058 
4 *670:19 *670:21 68.76 
5 *670:21 *793:pd 19.937 
*END

*D_NET *671 0.138472
*CONN
*I *793:switchon I *D CF_REFBUF
*I *788:analog_ctrl[105] O *D afe_wb
*CAP
1 *793:switchon 0.002172
2 *788:analog_ctrl[105] 0.0110131
3 *671:19 0.058223
4 *671:17 0.0670641
5 *671:19 *695:9 0
6 *671:19 *776:11 0
7 *20:24 *671:19 0
8 *20:38 *671:19 0
9 *528:13 *671:19 0
10 *670:7 *671:17 0
*RES
1 *788:analog_ctrl[105] *671:17 33.0303 
2 *671:17 *671:19 150.168 
3 *671:19 *793:switchon 6.7571 
*END

*D_NET *672 0.143506
*CONN
*I *793:boost I *D CF_REFBUF
*I *788:analog_ctrl[106] O *D afe_wb
*CAP
1 *793:boost 0.00998584
2 *788:analog_ctrl[106] 0.0106903
3 *672:9 0.0478009
4 *672:7 0.0485053
5 *672:7 *673:7 0.00189052
6 *672:7 *674:5 0
7 *672:9 *726:9 0.0227268
8 *4:18 *793:boost 0.00133209
9 *22:14 *793:boost 0.000574431
10 *670:7 *672:7 0
*RES
1 *788:analog_ctrl[106] *672:7 30.5846 
2 *672:7 *672:9 127.429 
3 *672:9 *793:boost 27.384 
*END

*D_NET *673 0.177764
*CONN
*I *793:ch_cont I *D CF_REFBUF
*I *788:analog_ctrl[107] O *D afe_wb
*CAP
1 *793:ch_cont 0.00918123
2 *788:analog_ctrl[107] 0.00191119
3 *673:9 0.0437057
4 *673:7 0.0364356
5 *793:ch_cont *789:pumpclk 0.000238461
6 *793:ch_cont *789:dft_inc[3] 0.00391024
7 *793:ch_cont *789:dft_inc[1] 0.00472799
8 *673:7 *674:5 0.00189643
9 *673:7 *689:15 0.00245087
10 *673:9 *752:9 0.0612853
11 *793:pd *793:ch_cont 0.00313925
12 *18:32 *793:ch_cont 0.00356403
13 *23:10 *793:ch_cont 6.70934e-06
14 *650:13 *793:ch_cont 0.00342041
15 *672:7 *673:7 0.00189052
*RES
1 *788:analog_ctrl[107] *673:7 9.6086 
2 *673:7 *673:9 125.965 
3 *673:9 *793:ch_cont 48.3865 
*END

*D_NET *674 0.147295
*CONN
*I *790:sw_start I *D CF_ADC_SAR12_sar_refs
*I *788:analog_ctrl[108] O *D afe_wb
*CAP
1 *790:sw_start 0.000554242
2 *788:analog_ctrl[108] 0.020664
3 *674:9 0.0178973
4 *674:7 0.0173431
5 *674:5 0.020664
6 *790:sw_start *790:hiz 0
7 *790:sw_start *790:pd_ana 0
8 *790:sw_start *776:37 0
9 *790:sw_start *787:21 0.000150312
10 *674:5 *675:5 0.0156601
11 *674:5 *689:15 0.0160488
12 *674:9 *678:9 0.036417
13 *672:7 *674:5 0
14 *673:7 *674:5 0.00189643
*RES
1 *788:analog_ctrl[108] *674:5 74.1342 
2 *674:5 *674:7 0.5 
3 *674:7 *674:9 66.5329 
4 *674:9 *790:sw_start 3.64823 
*END

*D_NET *675 0.160534
*CONN
*I *790:pd_vcmbuf I *D CF_ADC_SAR12_sar_refs
*I *788:analog_ctrl[109] O *D afe_wb
*CAP
1 *790:pd_vcmbuf 0.000394861
2 *788:analog_ctrl[109] 0.0127198
3 *675:9 0.0163021
4 *675:7 0.0159072
5 *675:5 0.0127198
6 *790:pd_vcmbuf *790:EN_RESVDA 0.000511902
7 *790:pd_vcmbuf *790:enable_hv 0.000209626
8 *790:pd_vcmbuf *747:15 0.000291663
9 *675:5 *678:5 0
10 *675:5 *683:10 0.0283324
11 *675:9 *679:9 0.0170366
12 *675:9 *689:19 0.0404484
13 *674:5 *675:5 0.0156601
*RES
1 *788:analog_ctrl[109] *675:5 73.8137 
2 *675:5 *675:7 0.5 
3 *675:7 *675:9 456.938 
4 *675:9 *790:pd_vcmbuf 12.4475 
*END

*D_NET *676 0.171268
*CONN
*I *789:reset_n I *D CF_ADC_SAR12
*I *788:analog_ctrl[10] O *D afe_wb
*CAP
1 *789:reset_n 0.00079981
2 *788:analog_ctrl[10] 0.0210383
3 *676:9 0.0094578
4 *676:7 0.00865799
5 *676:5 0.0210383
6 *789:reset_n *789:test_sea 0.000104978
7 *789:reset_n *789:iso_en 0.000547972
8 *789:reset_n *789:next 0.000231168
9 *676:5 *687:5 0.0112804
10 *676:5 *776:7 0
11 *676:5 *787:7 0.00193165
12 *676:9 *693:9 0.0488654
13 *676:9 *742:9 0
14 *2:30 *789:reset_n 0.00126862
15 *647:13 *676:9 0.0447004
16 *654:15 *789:reset_n 0.0010455
17 *658:7 *789:reset_n 0
18 *658:9 *789:reset_n 0.000300092
*RES
1 *788:analog_ctrl[10] *676:5 65.5981 
2 *676:5 *676:7 0.5 
3 *676:7 *676:9 548.865 
4 *676:9 *789:reset_n 8.24357 
*END

*D_NET *677 0.118358
*CONN
*I *790:S_LV[0] I *D CF_ADC_SAR12_sar_refs
*I *788:analog_ctrl[110] O *D afe_wb
*CAP
1 *790:S_LV[0] 0.00212165
2 *788:analog_ctrl[110] 0.00149984
3 *677:14 0.0283318
4 *677:12 0.0262102
5 *677:10 0.0281459
6 *677:8 0.0296457
7 *790:S_LV[0] *790:S_LV[7] 0.000399893
8 *790:S_LV[0] *790:S_LV[2] 7.79125e-05
9 *790:S_LV[0] *790:S_LV[1] 0.00081879
10 *677:8 *683:8 0.000119811
11 *677:8 *686:13 0.000890665
12 *677:10 *783:15 9.60472e-05
*RES
1 *788:analog_ctrl[110] *677:8 5.4308 
2 *677:8 *677:10 69.6084 
3 *677:10 *677:12 0.5 
4 *677:12 *677:14 69.2031 
5 *677:14 *790:S_LV[0] 8.34735 
*END

*D_NET *678 0.15571
*CONN
*I *790:S_LV[1] I *D CF_ADC_SAR12_sar_refs
*I *788:analog_ctrl[111] O *D afe_wb
*CAP
1 *790:S_LV[1] 0.000258859
2 *788:analog_ctrl[111] 0.0213974
3 *678:9 0.00933125
4 *678:7 0.00907239
5 *678:5 0.0213974
6 *790:S_LV[1] *790:S_LV[2] 0.00100394
7 *678:5 *679:5 0.0156646
8 *678:5 *680:5 0
9 *678:5 *683:10 0
10 *678:9 *679:9 2.482e-05
11 *678:9 *680:9 0.0403233
12 *790:S_LV[0] *790:S_LV[1] 0.00081879
13 *674:9 *678:9 0.036417
14 *675:5 *678:5 0
*RES
1 *788:analog_ctrl[111] *678:5 74.0177 
2 *678:5 *678:7 0.5 
3 *678:7 *678:9 73.8543 
4 *678:9 *790:S_LV[1] 2.77523 
*END

*D_NET *679 0.166157
*CONN
*I *790:S_LV[2] I *D CF_ADC_SAR12_sar_refs
*I *788:analog_ctrl[112] O *D afe_wb
*CAP
1 *790:S_LV[2] 0.000352575
2 *788:analog_ctrl[112] 0.0144749
3 *679:9 0.018413
4 *679:7 0.0180604
5 *679:5 0.0144749
6 *790:S_LV[2] *790:S_LV[7] 1.99447e-05
7 *790:S_LV[2] *790:S_LV[3] 0.00092039
8 *679:5 *680:5 0.0156705
9 *679:9 *680:9 0.040511
10 *679:9 *683:14 0
11 *679:9 *689:19 0.00945162
12 *790:S_LV[1] *790:S_LV[2] 0.00100394
13 *790:S_LV[0] *790:S_LV[2] 7.79125e-05
14 *675:9 *679:9 0.0170366
15 *678:5 *679:5 0.0156646
16 *678:9 *679:9 2.482e-05
*RES
1 *788:analog_ctrl[112] *679:5 73.7846 
2 *679:5 *679:7 0.5 
3 *679:7 *679:9 74.1127 
4 *679:9 *790:S_LV[2] 3.0083 
*END

*D_NET *680 0.165773
*CONN
*I *790:S_LV[3] I *D CF_ADC_SAR12_sar_refs
*I *788:analog_ctrl[113] O *D afe_wb
*CAP
1 *790:S_LV[3] 0.000329433
2 *788:analog_ctrl[113] 0.014673
3 *680:9 0.00855261
4 *680:7 0.00822317
5 *680:5 0.014673
6 *790:S_LV[3] *790:S_LV[7] 0.000894942
7 *790:S_LV[3] *790:S_LV[4] 2.03823e-05
8 *680:5 *681:5 0.0153175
9 *680:9 *746:9 0.00566356
10 *790:S_LV[2] *790:S_LV[3] 0.00092039
11 *678:5 *680:5 0
12 *678:9 *680:9 0.0403233
13 *679:5 *680:5 0.0156705
14 *679:9 *680:9 0.040511
*RES
1 *788:analog_ctrl[113] *680:5 73.9011 
2 *680:5 *680:7 0.5 
3 *680:7 *680:9 74.3711 
4 *680:9 *790:S_LV[3] 2.89177 
*END

*D_NET *681 0.114264
*CONN
*I *790:S_LV[4] I *D CF_ADC_SAR12_sar_refs
*I *788:analog_ctrl[114] O *D afe_wb
*CAP
1 *790:S_LV[4] 0.0011368
2 *788:analog_ctrl[114] 0.0141003
3 *681:9 0.0263599
4 *681:7 0.0252231
5 *681:5 0.0141003
6 *790:S_LV[4] *790:S_LV[7] 0.000791973
7 *790:S_LV[4] *790:S_LV[6] 0.00173953
8 *790:S_LV[4] *790:S_LV[5] 0.000176761
9 *681:5 *682:5 0.0152978
10 *790:S_LV[3] *790:S_LV[4] 2.03823e-05
11 *680:5 *681:5 0.0153175
*RES
1 *788:analog_ctrl[114] *681:5 72.0657 
2 *681:5 *681:7 0.5 
3 *681:7 *681:9 439.725 
4 *681:9 *790:S_LV[4] 5.46437 
*END

*D_NET *682 0.145914
*CONN
*I *790:S_LV[5] I *D CF_ADC_SAR12_sar_refs
*I *788:analog_ctrl[115] O *D afe_wb
*CAP
1 *790:S_LV[5] 0.0010791
2 *788:analog_ctrl[115] 0.0206627
3 *682:9 0.025263
4 *682:7 0.0241839
5 *682:5 0.0206627
6 *790:S_LV[5] *790:S_LV[7] 1.51607e-05
7 *790:S_LV[5] *790:S_LV[6] 0.000880038
8 *682:5 *684:5 0
9 *682:9 *684:9 0
10 *682:9 *685:9 0.0370252
11 *790:S_LV[4] *790:S_LV[5] 0.000176761
12 *790:vssa_shield *790:S_LV[5] 8.28122e-05
13 *19:54 *790:S_LV[5] 0.000585079
14 *681:5 *682:5 0.0152978
*RES
1 *788:analog_ctrl[115] *682:5 71.9201 
2 *682:5 *682:7 0.5 
3 *682:7 *682:9 74.3711 
4 *682:9 *790:S_LV[5] 7.03785 
*END

*D_NET *683 0.140778
*CONN
*I *790:S_LV[6] I *D CF_ADC_SAR12_sar_refs
*I *788:analog_ctrl[116] O *D afe_wb
*CAP
1 *790:S_LV[6] 0.000573321
2 *788:analog_ctrl[116] 0.00047172
3 *683:14 0.0281488
4 *683:12 0.0275755
5 *683:10 0.0192195
6 *683:8 0.0196913
7 *683:8 *686:13 0.000769577
8 *683:8 *689:13 0.000543521
9 *683:14 *745:9 0.0127131
10 *790:S_LV[5] *790:S_LV[6] 0.000880038
11 *790:S_LV[4] *790:S_LV[6] 0.00173953
12 *675:5 *683:10 0.0283324
13 *677:8 *683:8 0.000119811
14 *678:5 *683:10 0
15 *679:9 *683:14 0
*RES
1 *788:analog_ctrl[116] *683:8 3.27747 
2 *683:8 *683:10 72.9879 
3 *683:10 *683:12 0.5 
4 *683:12 *683:14 72.6484 
5 *683:14 *790:S_LV[6] 3.74297 
*END

*D_NET *684 0.128881
*CONN
*I *790:S_LV[7] I *D CF_ADC_SAR12_sar_refs
*I *788:analog_ctrl[117] O *D afe_wb
*CAP
1 *790:S_LV[7] 0.00120958
2 *788:analog_ctrl[117] 0.0204025
3 *684:9 0.0290875
4 *684:7 0.0278779
5 *684:5 0.0204025
6 *684:5 *685:5 0.0151365
7 *684:9 *685:9 0
8 *684:9 *744:9 0.0126423
9 *790:S_LV[5] *790:S_LV[7] 1.51607e-05
10 *790:S_LV[4] *790:S_LV[7] 0.000791973
11 *790:S_LV[3] *790:S_LV[7] 0.000894942
12 *790:S_LV[2] *790:S_LV[7] 1.99447e-05
13 *790:S_LV[0] *790:S_LV[7] 0.000399893
14 *19:54 *790:S_LV[7] 0
15 *682:5 *684:5 0
16 *682:9 *684:9 0
*RES
1 *788:analog_ctrl[117] *684:5 71.1043 
2 *684:5 *684:7 0.5 
3 *684:7 *684:9 75.5769 
4 *684:9 *790:S_LV[7] 6.59935 
*END

*D_NET *685 0.129879
*CONN
*I *790:refout_en I *D CF_ADC_SAR12_sar_refs
*I *788:analog_ctrl[118] O *D afe_wb
*CAP
1 *790:refout_en 0.00168185
2 *788:analog_ctrl[118] 0.0206343
3 *685:9 0.0182155
4 *685:7 0.0165337
5 *685:5 0.0206343
6 *790:refout_en *790:hiz 0
7 *685:5 *686:13 1.75305e-05
8 *685:5 *688:5 0
9 *682:9 *685:9 0.0370252
10 *684:5 *685:5 0.0151365
11 *684:9 *685:9 0
*RES
1 *788:analog_ctrl[118] *685:5 71.8035 
2 *685:5 *685:7 0.5 
3 *685:7 *685:9 68.6863 
4 *685:9 *790:refout_en 5.9789 
*END

*D_NET *686 0.114579
*CONN
*I *790:sw_holdb I *D CF_ADC_SAR12_sar_refs
*I *788:analog_ctrl[119] O *D afe_wb
*CAP
1 *790:sw_holdb 0.000120976
2 *788:analog_ctrl[119] 0.00290618
3 *686:19 0.0207314
4 *686:17 0.0206105
5 *686:15 0.0296223
6 *686:13 0.0325285
7 *686:13 *688:5 4.05873e-05
8 *686:13 *689:13 0.000266024
9 *686:13 *779:11 0.000443028
10 *686:13 *782:6 0.00103367
11 *686:13 *784:16 0.000167035
12 *686:15 *775:19 0.000661778
13 *686:19 *790:dft_comp_en 0.00376958
14 *677:8 *686:13 0.000890665
15 *683:8 *686:13 0.000769577
16 *685:5 *686:13 1.75305e-05
*RES
1 *788:analog_ctrl[119] *686:13 11.5475 
2 *686:13 *686:15 77.5327 
3 *686:15 *686:17 0.5 
4 *686:17 *686:19 58.1305 
5 *686:19 *790:sw_holdb 0.752067 
*END

*D_NET *687 0.149296
*CONN
*I *789:sof I *D CF_ADC_SAR12
*I *788:analog_ctrl[11] O *D afe_wb
*CAP
1 *789:sof 0.00165205
2 *788:analog_ctrl[11] 0.0183267
3 *687:9 0.0215249
4 *687:7 0.0198728
5 *687:5 0.0183267
6 *789:sof *789:sel_csel_dft[2] 0
7 *789:sof *789:hiz 1.89336e-05
8 *789:sof *789:test_sea 8.34667e-05
9 *789:sof *789:iso_en 0.00102289
10 *789:sof *789:next 9.6107e-05
11 *687:5 *691:5 0.0106854
12 *687:9 *742:9 0
13 *687:9 *747:9 0
14 *2:30 *789:sof 0
15 *651:15 *789:sof 0.000621754
16 *652:17 *687:9 0.0445793
17 *653:23 *789:sof 0.000235105
18 *654:15 *789:sof 0.000338871
19 *655:19 *789:sof 0.000388046
20 *656:21 *789:sof 0.000243031
21 *676:5 *687:5 0.0112804
*RES
1 *788:analog_ctrl[11] *687:5 66.4139 
2 *687:5 *687:7 0.5 
3 *687:7 *687:9 547.845 
4 *687:9 *789:sof 8.06763 
*END

*D_NET *688 0.116927
*CONN
*I *790:enpdb_hv I *D CF_ADC_SAR12_sar_refs
*I *788:analog_ctrl[120] O *D afe_wb
*CAP
1 *790:enpdb_hv 0.00114037
2 *788:analog_ctrl[120] 0.029046
3 *688:9 0.0287219
4 *688:7 0.0275815
5 *688:5 0.029046
6 *790:enpdb_hv *790:dft_comp_en 0.00135119
7 *688:5 *690:5 0
8 *688:9 *690:9 0
9 *685:5 *688:5 0
10 *686:13 *688:5 4.05873e-05
*RES
1 *788:analog_ctrl[120] *688:5 76.5814 
2 *688:5 *688:7 0.5 
3 *688:7 *688:9 66.1023 
4 *688:9 *790:enpdb_hv 4.8459 
*END

*D_NET *689 0.170161
*CONN
*I *790:PD_BUF_VREF I *D CF_ADC_SAR12_sar_refs
*I *788:analog_ctrl[121] O *D afe_wb
*CAP
1 *790:PD_BUF_VREF 0.000158072
2 *788:analog_ctrl[121] 0.00157894
3 *689:19 0.0101003
4 *689:17 0.00994222
5 *689:15 0.0253766
6 *689:13 0.0269556
7 *790:PD_BUF_VREF *790:PWR_CTRL_VREF[1] 0.000122127
8 *790:PD_BUF_VREF *790:EN_RESVDA 0.000794067
9 *790:PD_BUF_VREF *742:13 0.000911795
10 *790:PD_BUF_VREF *747:15 0.000141784
11 *689:19 *746:9 0.02487
12 *673:7 *689:15 0.00245087
13 *674:5 *689:15 0.0160488
14 *675:9 *689:19 0.0404484
15 *679:9 *689:19 0.00945162
16 *683:8 *689:13 0.000543521
17 *686:13 *689:13 0.000266024
*RES
1 *788:analog_ctrl[121] *689:13 29.087 
2 *689:13 *689:15 437.91 
3 *689:15 *689:17 2 
4 *689:17 *689:19 452.985 
5 *689:19 *790:PD_BUF_VREF 11.96 
*END

*D_NET *690 0.119446
*CONN
*I *790:dft_comp_en I *D CF_ADC_SAR12_sar_refs
*I *788:analog_ctrl[122] O *D afe_wb
*CAP
1 *790:dft_comp_en 0.00549656
2 *788:analog_ctrl[122] 0.0286757
3 *690:9 0.0282732
4 *690:7 0.0227766
5 *690:5 0.0286757
6 *790:enpdb_hv *790:dft_comp_en 0.00135119
7 *20:24 *790:dft_comp_en 0.000427124
8 *686:19 *790:dft_comp_en 0.00376958
9 *688:5 *690:5 0
10 *688:9 *690:9 0
*RES
1 *788:analog_ctrl[122] *690:5 75.5326 
2 *690:5 *690:7 0.5 
3 *690:7 *690:9 62.3985 
4 *690:9 *790:dft_comp_en 18.4917 
*END

*D_NET *691 0.133705
*CONN
*I *789:next I *D CF_ADC_SAR12
*I *788:analog_ctrl[12] O *D afe_wb
*CAP
1 *789:next 0.000265965
2 *788:analog_ctrl[12] 0.0205832
3 *691:9 0.0201605
4 *691:7 0.0198946
5 *691:5 0.0205832
6 *789:next *789:iso_en 6.45504e-05
7 *691:5 *692:11 0.00031554
8 *691:5 *693:5 0
9 *691:5 *700:15 0
10 *789:sof *789:next 9.6107e-05
11 *789:reset_n *789:next 0.000231168
12 *15:16 *691:9 0.00808421
13 *648:7 *789:next 1.08194e-05
14 *649:10 *691:9 0.000115861
15 *654:15 *789:next 0.000271628
16 *656:21 *789:next 0.000348193
17 *656:23 *691:9 0.0223637
18 *657:12 *691:9 0.000723755
19 *657:16 *691:9 0.00890599
20 *687:5 *691:5 0.0106854
*RES
1 *788:analog_ctrl[12] *691:5 62.1313 
2 *691:5 *691:7 0.5 
3 *691:7 *691:9 93.2343 
4 *691:9 *789:next 3.9644 
*END

*D_NET *692 0.164769
*CONN
*I *789:hiz I *D CF_ADC_SAR12
*I *790:hiz I *D CF_ADC_SAR12_sar_refs
*I *788:analog_ctrl[13] O *D afe_wb
*CAP
1 *789:hiz 2.68833e-05
2 *790:hiz 0.00386786
3 *788:analog_ctrl[13] 0.00173607
4 *692:33 0.0139638
5 *692:17 0.0244309
6 *692:13 0.0310065
7 *692:11 0.0261164
8 *789:hiz *789:sel_csel_dft[2] 0
9 *790:hiz *790:pd 0.000117056
10 *790:hiz *776:37 0.00982896
11 *692:11 *693:5 0.000357652
12 *692:11 *698:9 0.00262129
13 *692:11 *743:19 0.000725196
14 *692:11 *775:19 0.000213565
15 *692:17 *735:17 0.0153795
16 *692:33 *789:test_sea 0.00171311
17 *692:33 *731:17 0.00010103
18 *692:33 *735:17 0.0322288
19 *789:sof *789:hiz 1.89336e-05
20 *790:sw_start *790:hiz 0
21 *790:refout_en *790:hiz 0
22 *649:10 *692:17 0
23 *649:10 *692:33 0
24 *691:5 *692:11 0.00031554
*RES
1 *788:analog_ctrl[13] *692:11 32.889 
2 *692:11 *692:13 58.4503 
3 *692:13 *692:17 28.5313 
4 *692:17 *790:hiz 17.8203 
5 *692:17 *692:33 60.4175 
6 *692:33 *789:hiz 1.5625 
*END

*D_NET *693 0.14463
*CONN
*I *789:iso_en I *D CF_ADC_SAR12
*I *788:analog_ctrl[14] O *D afe_wb
*CAP
1 *789:iso_en 0.000370496
2 *788:analog_ctrl[14] 0.0240593
3 *693:9 0.0196696
4 *693:7 0.0192991
5 *693:5 0.0240593
6 *693:5 *694:15 0.000793918
7 *693:5 *695:7 0
8 *693:5 *700:15 0.00447103
9 *693:5 *738:13 0
10 *693:9 *742:9 0
11 *789:sof *789:iso_en 0.00102289
12 *789:reset_n *789:iso_en 0.000547972
13 *789:next *789:iso_en 6.45504e-05
14 *647:11 *789:iso_en 0.000337995
15 *648:7 *789:iso_en 3.44331e-05
16 *652:15 *789:iso_en 0.00067599
17 *676:9 *693:9 0.0488654
18 *691:5 *693:5 0
19 *692:11 *693:5 0.000357652
*RES
1 *788:analog_ctrl[14] *693:5 65.5399 
2 *693:5 *693:7 0.5 
3 *693:7 *693:9 554.985 
4 *693:9 *789:iso_en 4.10597 
*END

*D_NET *694 0.156779
*CONN
*I *789:enable_hv I *D CF_ADC_SAR12
*I *790:enable_hv I *D CF_ADC_SAR12_sar_refs
*I *788:analog_ctrl[15] O *D afe_wb
*CAP
1 *789:enable_hv 0.00242863
2 *790:enable_hv 0.0167681
3 *788:analog_ctrl[15] 0.0110253
4 *694:39 0.020609
5 *694:21 0.038848
6 *694:19 0.0185921
7 *694:15 0.0257179
8 *789:enable_hv *789:trimunit 4.85206e-05
9 *789:enable_hv *789:cap_trim[1] 2.80137e-06
10 *789:enable_hv *789:cap_trim[0] 1.86601e-05
11 *789:enable_hv *789:pd 0.000134831
12 *789:enable_hv *789:pd_ana 6.63391e-05
13 *789:enable_hv *789:dft_inc[3] 0.000178215
14 *789:enable_hv *789:dft_inc[2] 0.00334378
15 *789:enable_hv *789:dft_inc[0] 0.0003279
16 *789:enable_hv *789:dft_outc[1] 4.32417e-05
17 *790:enable_hv *790:EN_RESVDA 0.00012446
18 *790:enable_hv *747:15 0.000932821
19 *694:15 *695:7 0.000793918
20 *694:15 *706:13 0
21 *694:19 *787:17 0.0049757
22 *694:19 *787:35 0.00602182
23 *789:refclk *789:enable_hv 0.000670702
24 *790:pd_vcmbuf *790:enable_hv 0.000209626
25 *646:9 *789:enable_hv 0.00121974
26 *648:9 *789:enable_hv 0.000825117
27 *658:9 *789:enable_hv 0.00205777
28 *693:5 *694:15 0.000793918
*RES
1 *788:analog_ctrl[15] *694:15 49.8271 
2 *694:15 *694:19 41.6236 
3 *694:19 *694:21 10.2929 
4 *694:21 *790:enable_hv 43.0872 
5 *694:21 *694:39 49.8063 
6 *694:39 *789:enable_hv 13.8106 
*END

*D_NET *695 0.104557
*CONN
*I *789:trimunit I *D CF_ADC_SAR12
*I *788:analog_ctrl[16] O *D afe_wb
*CAP
1 *789:trimunit 0.00113718
2 *788:analog_ctrl[16] 0.00778808
3 *695:9 0.0271333
4 *695:7 0.0337842
5 *789:trimunit *789:pd 0.000138724
6 *789:trimunit *789:pd_ana 4.53875e-05
7 *789:trimunit *789:dft_inc[3] 2.49166e-06
8 *789:trimunit *789:dft_inc[0] 3.50146e-05
9 *789:trimunit *789:dft_outc[2] 9.08227e-05
10 *695:7 *696:7 0.00263421
11 *695:7 *738:13 0.00978326
12 *789:refclk *789:trimunit 0.000571232
13 *789:enable_hv *789:trimunit 4.85206e-05
14 *528:13 *695:9 0.0205712
15 *671:19 *695:9 0
16 *693:5 *695:7 0
17 *694:15 *695:7 0.000793918
*RES
1 *788:analog_ctrl[16] *695:7 28.487 
2 *695:7 *695:9 94.1817 
3 *695:9 *789:trimunit 5.3454 
*END

*D_NET *696 0.116478
*CONN
*I *789:dly_inc I *D CF_ADC_SAR12
*I *788:analog_ctrl[17] O *D afe_wb
*CAP
1 *789:dly_inc 0.00191732
2 *788:analog_ctrl[17] 0.00543225
3 *696:9 0.0238838
4 *696:7 0.0273987
5 *789:dly_inc *789:cap_trim[1] 1.24855e-05
6 *789:dly_inc *789:icont_lv[1] 0.000250512
7 *789:dly_inc *789:icont_lv[0] 3.09365e-05
8 *789:dly_inc *789:dcen 0.000806893
9 *789:dly_inc *789:dft_outc[0] 2.24045e-05
10 *696:7 *697:7 0.00317701
11 *696:7 *738:13 0.00199913
12 *696:9 *718:9 0.0477772
13 *696:9 *728:9 0.00113485
14 *695:7 *696:7 0.00263421
*RES
1 *788:analog_ctrl[17] *696:7 21.1454 
2 *696:7 *696:9 91.0809 
3 *696:9 *789:dly_inc 8.40437 
*END

*D_NET *697 0.116604
*CONN
*I *789:dcen I *D CF_ADC_SAR12
*I *788:analog_ctrl[18] O *D afe_wb
*CAP
1 *789:dcen 0.00338159
2 *788:analog_ctrl[18] 0.00654169
3 *697:9 0.0249433
4 *697:7 0.0281034
5 *789:dcen *789:cap_trim[1] 0.000227894
6 *789:dcen *789:dft_outc[2] 2.91467e-05
7 *789:dcen *789:dft_outc[0] 2.24303e-05
8 *789:dcen *724:9 0
9 *697:7 *698:7 0.000305517
10 *697:7 *700:15 0
11 *697:9 *719:9 0.0490649
12 *697:9 *729:9 0
13 *789:dly_inc *789:dcen 0.000806893
14 *696:7 *697:7 0.00317701
*RES
1 *788:analog_ctrl[18] *697:7 19.2809 
2 *697:7 *697:9 89.7889 
3 *697:9 *789:dcen 12.2525 
*END

*D_NET *698 0.10794
*CONN
*I *789:pumpclk I *D CF_ADC_SAR12
*I *788:analog_ctrl[19] O *D afe_wb
*CAP
1 *789:pumpclk 0.000147246
2 *788:analog_ctrl[19] 0.000818676
3 *698:17 0.0174713
4 *698:15 0.0223319
5 *698:9 0.0105271
6 *698:7 0.00633794
7 *789:pumpclk *789:en_pump_lv 2.84312e-05
8 *789:pumpclk *789:dft_inc[3] 0.000238461
9 *698:7 *700:15 0.000347952
10 *698:9 *700:15 0
11 *698:9 *743:19 0.00118723
12 *698:9 *761:19 8.17371e-05
13 *698:9 *763:9 0.00555481
14 *698:9 *768:9 0
15 *698:9 *775:19 0.000491375
16 *698:17 *700:17 0.0392107
17 *793:ch_cont *789:pumpclk 0.000238461
18 *649:14 *698:15 0
19 *656:27 *698:15 0
20 *692:11 *698:9 0.00262129
21 *697:7 *698:7 0.000305517
*RES
1 *788:analog_ctrl[19] *698:7 2.64573 
2 *698:7 *698:9 140.355 
3 *698:9 *698:15 13.2449 
4 *698:15 *698:17 71.9593 
5 *698:17 *789:pumpclk 3.25597 
*END

*D_NET *699 0.108838
*CONN
*I *792:en_pd I *D CF_BUF_HIZ
*I *788:analog_ctrl[1] O *D afe_wb
*CAP
1 *792:en_pd 0.00196531
2 *788:analog_ctrl[1] 0.00240659
3 *699:21 0.0105213
4 *699:19 0.0109626
5 *699:19 *710:19 0.00416678
6 *699:19 *758:9 0.0024027
7 *699:19 *761:9 0.000150181
8 *699:19 *763:15 0.00261634
9 *699:19 *766:17 0.000110855
10 *699:19 *768:9 0.000104785
11 *699:19 *769:23 6.64622e-05
12 *699:19 *775:19 0.000486043
13 *699:19 *775:31 0.000225009
14 *699:19 *781:32 0.000315583
15 *699:21 *721:25 0.0302922
16 *788:adc_eof *699:19 8.14646e-05
17 *792:e_pd *792:en_pd 0.00383978
18 *648:25 *699:21 4.21784e-05
19 *665:27 *699:19 0.0025057
20 *665:29 *699:21 0.0355766
*RES
1 *788:analog_ctrl[1] *699:19 37.1863 
2 *699:19 *699:21 65.3271 
3 *699:21 *792:en_pd 9.52143 
*END

*D_NET *700 0.105569
*CONN
*I *789:en_pump_lv I *D CF_ADC_SAR12
*I *788:analog_ctrl[20] O *D afe_wb
*CAP
1 *789:en_pump_lv 0.000136897
2 *788:analog_ctrl[20] 0.00495662
3 *700:17 0.0254466
4 *700:15 0.0302663
5 *789:en_pump_lv *789:dft_inc[3] 0.000142491
6 *700:15 *701:5 0.000440451
7 *700:15 *763:9 0
8 *789:pumpclk *789:en_pump_lv 2.84312e-05
9 *648:23 *789:en_pump_lv 0.00012105
10 *691:5 *700:15 0
11 *693:5 *700:15 0.00447103
12 *697:7 *700:15 0
13 *698:7 *700:15 0.000347952
14 *698:9 *700:15 0
15 *698:17 *700:17 0.0392107
*RES
1 *788:analog_ctrl[20] *700:15 29.1391 
2 *700:15 *700:17 93.4927 
3 *700:17 *789:en_pump_lv 2.06283 
*END

*D_NET *701 0.143579
*CONN
*I *789:scan_test_mode I *D CF_ADC_SAR12
*I *788:analog_ctrl[21] O *D afe_wb
*CAP
1 *789:scan_test_mode 0.000197215
2 *788:analog_ctrl[21] 0.01795
3 *701:9 0.0232591
4 *701:7 0.0230619
5 *701:5 0.01795
6 *789:scan_test_mode *789:test_scanin 0.000457236
7 *701:5 *702:5 0.0119685
8 *701:9 *789:test_scanen 0
9 *701:9 *702:9 0
10 *648:9 *789:scan_test_mode 0.000102815
11 *651:15 *789:scan_test_mode 0.000361064
12 *651:17 *701:9 0.04247
13 *654:17 *701:9 0.00533527
14 *655:19 *789:scan_test_mode 2.52967e-05
15 *700:15 *701:5 0.000440451
*RES
1 *788:analog_ctrl[21] *701:5 58.8683 
2 *701:5 *701:7 0.5 
3 *701:7 *701:9 96.1628 
4 *701:9 *789:scan_test_mode 2.2123 
*END

*D_NET *702 0.170278
*CONN
*I *789:test_scanin I *D CF_ADC_SAR12
*I *788:analog_ctrl[22] O *D afe_wb
*CAP
1 *789:test_scanin 0.000418385
2 *788:analog_ctrl[22] 0.0133584
3 *702:9 0.0146447
4 *702:7 0.0142263
5 *702:5 0.0133584
6 *789:test_scanin *789:test_scanen 4.53306e-05
7 *702:5 *703:5 0.0105202
8 *702:5 *704:5 0
9 *702:9 *706:17 0.048958
10 *789:scan_test_mode *789:test_scanin 0.000457236
11 *651:15 *789:test_scanin 5.87667e-05
12 *654:15 *789:test_scanin 0.00049795
13 *654:17 *702:9 0.0416338
14 *655:19 *789:test_scanin 0.000114327
15 *655:21 *702:9 0
16 *658:9 *789:test_scanin 1.75162e-05
17 *701:5 *702:5 0.0119685
18 *701:9 *702:9 0
*RES
1 *788:analog_ctrl[22] *702:5 58.2857 
2 *702:5 *702:7 0.5 
3 *702:7 *702:9 96.5935 
4 *702:9 *789:test_scanin 3.45063 
*END

*D_NET *703 0.149865
*CONN
*I *789:test_scanen I *D CF_ADC_SAR12
*I *788:analog_ctrl[23] O *D afe_wb
*CAP
1 *789:test_scanen 0.00574337
2 *788:analog_ctrl[23] 0.0111267
3 *703:9 0.0266765
4 *703:7 0.0209331
5 *703:5 0.0111267
6 *789:test_scanen *789:sel_csel_dft[0] 0
7 *789:test_scanen *789:sel_csel_dft[2] 4.82389e-06
8 *789:test_scanen *789:test_sea 0
9 *789:test_scanen *731:17 0.000315741
10 *789:test_scanen *733:17 0.00173775
11 *703:5 *704:5 0.0105261
12 *703:9 *716:9 0.0490668
13 *789:test_scanin *789:test_scanen 4.53306e-05
14 *18:65 *703:9 0.00198765
15 *651:15 *789:test_scanen 1.45731e-05
16 *651:17 *789:test_scanen 0
17 *654:15 *789:test_scanen 4.00045e-05
18 *701:9 *789:test_scanen 0
19 *702:5 *703:5 0.0105202
*RES
1 *788:analog_ctrl[23] *703:5 51.1771 
2 *703:5 *703:7 0.5 
3 *703:7 *703:9 89.7889 
4 *703:9 *789:test_scanen 19.9668 
*END

*D_NET *704 0.148843
*CONN
*I *789:test_sea I *D CF_ADC_SAR12
*I *788:analog_ctrl[24] O *D afe_wb
*CAP
1 *789:test_sea 0.00506144
2 *788:analog_ctrl[24] 0.0167951
3 *704:9 0.0263785
4 *704:7 0.0213171
5 *704:5 0.0167951
6 *704:5 *705:7 0.000909149
7 *704:9 *789:sample_width[0] 0.000352999
8 *704:9 *734:9 0.048767
9 *789:test_scanen *789:test_sea 0
10 *789:sof *789:test_sea 8.34667e-05
11 *789:reset_n *789:test_sea 0.000104978
12 *649:10 *789:test_sea 0
13 *653:23 *789:test_sea 0
14 *654:15 *789:test_sea 3.92756e-05
15 *692:33 *789:test_sea 0.00171311
16 *702:5 *704:5 0
17 *703:5 *704:5 0.0105261
*RES
1 *788:analog_ctrl[24] *704:5 54.6731 
2 *704:5 *704:7 0.5 
3 *704:7 *704:9 89.2721 
4 *704:9 *789:test_sea 18.4975 
*END

*D_NET *705 0.137568
*CONN
*I *789:resolution[0] I *D CF_ADC_SAR12
*I *788:analog_ctrl[25] O *D afe_wb
*CAP
1 *789:resolution[0] 0.001026
2 *788:analog_ctrl[25] 0.00204298
3 *705:17 0.0161973
4 *705:15 0.0151713
5 *705:13 0.0201225
6 *705:11 0.0201225
7 *705:9 0.00970071
8 *705:7 0.0117437
9 *789:resolution[0] *706:17 0.000599932
10 *705:7 *706:11 0.000220049
11 *705:7 *707:7 0
12 *705:9 *725:9 0.00502943
13 *705:13 *717:15 0
14 *705:13 *733:15 0
15 *705:13 *787:17 0
16 *705:17 *706:17 0.0346822
17 *655:21 *789:resolution[0] 0
18 *655:21 *705:17 0
19 *704:5 *705:7 0.000909149
*RES
1 *788:analog_ctrl[25] *705:7 6.14173 
2 *705:7 *705:9 173.505 
3 *705:9 *705:11 0.5 
4 *705:11 *705:13 52.4489 
5 *705:13 *705:15 0.5 
6 *705:15 *705:17 63.4245 
7 *705:17 *789:resolution[0] 3.882 
*END

*D_NET *706 0.163587
*CONN
*I *789:resolution[1] I *D CF_ADC_SAR12
*I *788:analog_ctrl[26] O *D afe_wb
*CAP
1 *789:resolution[1] 4.15843e-05
2 *788:analog_ctrl[26] 0.00208285
3 *706:17 0.0130555
4 *706:15 0.0130139
5 *706:13 0.0225113
6 *706:11 0.0245941
7 *706:11 *707:7 0.000222173
8 *706:11 *749:9 0.00350985
9 *706:11 *768:9 0
10 *706:13 *743:19 9.57834e-05
11 *706:13 *776:7 0
12 *789:resolution[0] *706:17 0.000599932
13 *655:21 *706:17 0
14 *694:15 *706:13 0
15 *702:9 *706:17 0.048958
16 *705:7 *706:11 0.000220049
17 *705:17 *706:17 0.0346822
*RES
1 *788:analog_ctrl[26] *706:11 43.235 
2 *706:11 *706:13 56.8771 
3 *706:13 *706:15 0.5 
4 *706:15 *706:17 89.6167 
5 *706:17 *789:resolution[1] 1.08107 
*END

*D_NET *707 0.119895
*CONN
*I *789:sample_width[0] I *D CF_ADC_SAR12
*I *788:analog_ctrl[27] O *D afe_wb
*CAP
1 *789:sample_width[0] 0.00524511
2 *788:analog_ctrl[27] 0.0155839
3 *707:9 0.0395938
4 *707:7 0.0499326
5 *789:sample_width[0] *789:sample_width[7] 0
6 *789:sample_width[0] *734:9 0.000442053
7 *707:7 *708:7 0.00852274
8 *707:7 *709:7 0
9 *707:7 *739:13 0
10 *707:9 *711:9 0
11 *704:9 *789:sample_width[0] 0.000352999
12 *705:7 *707:7 0
13 *706:11 *707:7 0.000222173
*RES
1 *788:analog_ctrl[27] *707:7 49.5795 
2 *707:7 *707:9 88.5831 
3 *707:9 *789:sample_width[0] 16.3653 
*END

*D_NET *708 0.123986
*CONN
*I *789:sample_width[1] I *D CF_ADC_SAR12
*I *788:analog_ctrl[28] O *D afe_wb
*CAP
1 *789:sample_width[1] 0.00307249
2 *788:analog_ctrl[28] 0.00895267
3 *708:9 0.0394926
4 *708:7 0.0453727
5 *789:sample_width[1] *789:sample_width[4] 0.000282587
6 *789:sample_width[1] *789:sample_width[5] 0.0016098
7 *789:sample_width[1] *789:sample_width[6] 0.008152
8 *708:7 *709:7 0.00852865
9 *707:7 *708:7 0.00852274
*RES
1 *788:analog_ctrl[28] *708:7 41.8883 
2 *708:7 *708:9 98.23 
3 *708:9 *789:sample_width[1] 14.8345 
*END

*D_NET *709 0.131589
*CONN
*I *789:sample_width[2] I *D CF_ADC_SAR12
*I *788:analog_ctrl[29] O *D afe_wb
*CAP
1 *789:sample_width[2] 0.00105549
2 *788:analog_ctrl[29] 0.00979357
3 *709:9 0.040178
4 *709:7 0.0489161
5 *789:sample_width[2] *789:sample_width[3] 0.001479
6 *789:sample_width[2] *789:sample_width[4] 0.000661116
7 *789:sample_width[2] *789:sample_width[6] 0.0049944
8 *789:sample_width[2] *789:sample_width[8] 0.00289853
9 *709:7 *711:7 0.00961993
10 *709:7 *739:13 0.00346413
11 *707:7 *709:7 0
12 *708:7 *709:7 0.00852865
*RES
1 *788:analog_ctrl[29] *709:7 47.1323 
2 *709:7 *709:9 98.8329 
3 *709:9 *789:sample_width[2] 9.89453 
*END

*D_NET *710 0.0917466
*CONN
*I *792:tp I *D CF_BUF_HIZ
*I *788:analog_ctrl[2] O *D afe_wb
*CAP
1 *792:tp 0.0060583
2 *788:analog_ctrl[2] 0.00235448
3 *710:21 0.0220879
4 *710:19 0.0183841
5 *792:tp *792:clk2_boost 0.0137107
6 *710:19 *721:23 0.000140412
7 *710:19 *743:33 0.0038816
8 *710:19 *758:9 0.00263306
9 *710:19 *761:19 0.00230523
10 *710:19 *761:23 0.000346427
11 *710:19 *763:9 0.000191196
12 *710:19 *763:15 2.70068e-05
13 *710:19 *769:23 4.11745e-05
14 *710:19 *775:19 0.000520744
15 *710:21 *721:25 0.00390409
16 *710:21 *743:33 0.0108121
17 *24:38 *792:tp 0.000181315
18 *699:19 *710:19 0.00416678
*RES
1 *788:analog_ctrl[2] *710:19 39.3867 
2 *710:19 *710:21 55.3356 
3 *710:21 *792:tp 32.9096 
*END

*D_NET *711 0.128974
*CONN
*I *789:sample_width[3] I *D CF_ADC_SAR12
*I *788:analog_ctrl[30] O *D afe_wb
*CAP
1 *789:sample_width[3] 0.000719498
2 *788:analog_ctrl[30] 0.0126012
3 *711:9 0.0375295
4 *711:7 0.0494112
5 *789:sample_width[3] *789:sample_width[4] 0.00483951
6 *789:sample_width[3] *789:sample_width[8] 0.00298275
7 *711:7 *712:7 0.0063617
8 *711:7 *713:5 0
9 *711:7 *739:13 0.000255187
10 *789:sample_width[2] *789:sample_width[3] 0.001479
11 *646:9 *789:sample_width[3] 0.00205046
12 *648:9 *789:sample_width[3] 0.00112456
13 *707:9 *711:9 0
14 *709:7 *711:7 0.00961993
*RES
1 *788:analog_ctrl[30] *711:7 48.8803 
2 *711:7 *711:9 99.2636 
3 *711:9 *789:sample_width[3] 8.66977 
*END

*D_NET *712 0.130884
*CONN
*I *789:sample_width[4] I *D CF_ADC_SAR12
*I *788:analog_ctrl[31] O *D afe_wb
*CAP
1 *789:sample_width[4] 0.00336894
2 *788:analog_ctrl[31] 0.0100971
3 *712:9 0.0403202
4 *712:7 0.0470484
5 *789:sample_width[4] *789:sample_width[6] 0.000739393
6 *789:sample_width[4] *789:sample_width[8] 5.11015e-05
7 *712:7 *713:5 0.00636407
8 *789:sample_width[1] *789:sample_width[4] 0.000282587
9 *789:sample_width[3] *789:sample_width[4] 0.00483951
10 *789:sample_width[2] *789:sample_width[4] 0.000661116
11 *18:65 *789:sample_width[4] 0.003693
12 *646:9 *789:sample_width[4] 0.00341111
13 *648:9 *789:sample_width[4] 0.00156329
14 *658:9 *789:sample_width[4] 0.00208211
15 *711:7 *712:7 0.0063617
*RES
1 *788:analog_ctrl[31] *712:7 37.5766 
2 *712:7 *712:9 99.6943 
3 *712:9 *789:sample_width[4] 20.6102 
*END

*D_NET *713 0.12548
*CONN
*I *789:sample_width[5] I *D CF_ADC_SAR12
*I *788:analog_ctrl[32] O *D afe_wb
*CAP
1 *789:sample_width[5] 0.000749948
2 *788:analog_ctrl[32] 0.0159891
3 *713:9 0.0300567
4 *713:7 0.0293067
5 *713:5 0.0159891
6 *789:sample_width[5] *789:sample_width[6] 0.000211049
7 *713:5 *714:7 0.00742683
8 *713:5 *715:5 0
9 *789:sample_width[1] *789:sample_width[5] 0.0016098
10 *653:25 *713:9 0.017777
11 *711:7 *713:5 0
12 *712:7 *713:5 0.00636407
*RES
1 *788:analog_ctrl[32] *713:5 52.8086 
2 *713:5 *713:7 0.5 
3 *713:7 *713:9 99.522 
4 *713:9 *789:sample_width[5] 3.9374 
*END

*D_NET *714 0.129013
*CONN
*I *789:sample_width[6] I *D CF_ADC_SAR12
*I *788:analog_ctrl[33] O *D afe_wb
*CAP
1 *789:sample_width[6] 0.00154724
2 *788:analog_ctrl[33] 0.0104741
3 *714:9 0.0387204
4 *714:7 0.0476472
5 *789:sample_width[6] *789:sample_width[8] 0.000211049
6 *714:7 *715:5 0.00888944
7 *789:sample_width[1] *789:sample_width[6] 0.008152
8 *789:sample_width[4] *789:sample_width[6] 0.000739393
9 *789:sample_width[5] *789:sample_width[6] 0.000211049
10 *789:sample_width[2] *789:sample_width[6] 0.0049944
11 *713:5 *714:7 0.00742683
*RES
1 *788:analog_ctrl[33] *714:7 43.6363 
2 *714:7 *714:9 100.039 
3 *714:9 *789:sample_width[6] 13.7515 
*END

*D_NET *715 0.146911
*CONN
*I *789:sample_width[7] I *D CF_ADC_SAR12
*I *788:analog_ctrl[34] O *D afe_wb
*CAP
1 *789:sample_width[7] 0.00509023
2 *788:analog_ctrl[34] 0.0115941
3 *715:9 0.0263359
4 *715:7 0.0212456
5 *715:5 0.0115941
6 *789:sample_width[7] *717:17 0.00337439
7 *715:5 *716:5 0.0105408
8 *715:9 *716:9 0.0482469
9 *789:sample_width[0] *789:sample_width[7] 0
10 *18:65 *789:sample_width[7] 0
11 *713:5 *715:5 0
12 *714:7 *715:5 0.00888944
*RES
1 *788:analog_ctrl[34] *715:5 50.9441 
2 *715:5 *715:7 0.5 
3 *715:7 *715:9 88.3247 
4 *715:9 *789:sample_width[7] 18.0816 
*END

*D_NET *716 0.177109
*CONN
*I *789:sample_width[8] I *D CF_ADC_SAR12
*I *788:analog_ctrl[35] O *D afe_wb
*CAP
1 *789:sample_width[8] 0.000929846
2 *788:analog_ctrl[35] 0.010991
3 *716:9 0.0145934
4 *716:7 0.0136636
5 *716:5 0.010991
6 *789:sample_width[8] *789:sample_width[9] 0
7 *716:5 *717:5 0.0103791
8 *789:sample_width[3] *789:sample_width[8] 0.00298275
9 *789:sample_width[4] *789:sample_width[8] 5.11015e-05
10 *789:sample_width[6] *789:sample_width[8] 0.000211049
11 *789:sample_width[2] *789:sample_width[8] 0.00289853
12 *18:65 *716:9 0.00149419
13 *658:9 *789:sample_width[8] 6.91911e-05
14 *703:9 *716:9 0.0490668
15 *715:5 *716:5 0.0105408
16 *715:9 *716:9 0.0482469
*RES
1 *788:analog_ctrl[35] *716:5 51.0606 
2 *716:5 *716:7 0.5 
3 *716:7 *716:9 100.9 
4 *716:9 *789:sample_width[8] 7.99497 
*END

*D_NET *717 0.130447
*CONN
*I *789:sample_width[9] I *D CF_ADC_SAR12
*I *788:analog_ctrl[36] O *D afe_wb
*CAP
1 *789:sample_width[9] 0.00016223
2 *788:analog_ctrl[36] 0.0134642
3 *717:17 0.0297504
4 *717:15 0.0320202
5 *717:9 0.0130629
6 *717:7 0.0106309
7 *717:5 0.0134642
8 *717:5 *718:7 0.0041217
9 *789:sample_width[7] *717:17 0.00337439
10 *789:sample_width[8] *789:sample_width[9] 0
11 *658:9 *789:sample_width[9] 1.70579e-05
12 *705:13 *717:15 0
13 *716:5 *717:5 0.0103791
*RES
1 *788:analog_ctrl[36] *717:5 50.2157 
2 *717:5 *717:7 0.5 
3 *717:7 *717:9 190.845 
4 *717:9 *717:15 7.01033 
5 *717:15 *717:17 69.1169 
6 *717:17 *789:sample_width[9] 1.74617 
*END

*D_NET *718 0.152151
*CONN
*I *789:cap_trim[0] I *D CF_ADC_SAR12
*I *788:analog_ctrl[37] O *D afe_wb
*CAP
1 *789:cap_trim[0] 0.00382545
2 *788:analog_ctrl[37] 0.00541525
3 *718:9 0.0152019
4 *718:7 0.0167917
5 *789:cap_trim[0] *789:cap_trim[1] 0.000318594
6 *789:cap_trim[0] *789:dft_inc[0] 1.58754e-05
7 *789:cap_trim[0] *724:9 0.00403827
8 *718:7 *719:7 0.00317065
9 *718:7 *731:13 0
10 *718:9 *728:9 0.0514554
11 *789:enable_hv *789:cap_trim[0] 1.86601e-05
12 *696:9 *718:9 0.0477772
13 *717:5 *718:7 0.0041217
*RES
1 *788:analog_ctrl[37] *718:7 21.0289 
2 *718:7 *718:9 94.2679 
3 *718:9 *789:cap_trim[0] 13.9137 
*END

*D_NET *719 0.127321
*CONN
*I *789:cap_trim[1] I *D CF_ADC_SAR12
*I *788:analog_ctrl[38] O *D afe_wb
*CAP
1 *789:cap_trim[1] 0.00131056
2 *788:analog_ctrl[38] 0.00509447
3 *719:9 0.0274972
4 *719:7 0.0312811
5 *789:cap_trim[1] *789:cap_trim[2] 0.000103142
6 *789:cap_trim[1] *789:dft_inc[0] 0.000351354
7 *789:cap_trim[1] *789:icont_lv[1] 0.00261254
8 *789:cap_trim[1] *789:icont_lv[0] 0.0018276
9 *789:cap_trim[1] *789:dft_outc[0] 0.000445437
10 *719:7 *720:7 0.00172627
11 *719:7 *731:13 0.00203753
12 *789:cap_trim[0] *789:cap_trim[1] 0.000318594
13 *789:dly_inc *789:cap_trim[1] 1.24855e-05
14 *789:dcen *789:cap_trim[1] 0.000227894
15 *789:enable_hv *789:cap_trim[1] 2.80137e-06
16 *646:9 *789:cap_trim[1] 0.000236896
17 *697:9 *719:9 0.0490649
18 *718:7 *719:7 0.00317065
*RES
1 *788:analog_ctrl[38] *719:7 19.1643 
2 *719:7 *719:9 101.675 
3 *719:9 *789:cap_trim[1] 8.2532 
*END

*D_NET *720 0.110949
*CONN
*I *789:cap_trim[2] I *D CF_ADC_SAR12
*I *788:analog_ctrl[39] O *D afe_wb
*CAP
1 *789:cap_trim[2] 0.000966539
2 *788:analog_ctrl[39] 0.00471795
3 *720:9 0.0421722
4 *720:7 0.0459236
5 *789:cap_trim[2] *789:dft_inc[3] 0.00369386
6 *789:cap_trim[2] *789:dft_inc[1] 0.00317086
7 *789:cap_trim[2] *789:dft_inc[0] 0.000309425
8 *789:cap_trim[2] *789:dft_outc[0] 0.00224501
9 *720:7 *722:7 0.00142899
10 *720:7 *723:7 0
11 *720:7 *731:13 0.00427928
12 *720:7 *735:15 0
13 *720:9 *723:9 0
14 *789:cap_trim[1] *789:cap_trim[2] 0.000103142
15 *648:9 *789:cap_trim[2] 0.000181246
16 *658:9 *789:cap_trim[2] 3.10034e-05
17 *719:7 *720:7 0.00172627
*RES
1 *788:analog_ctrl[39] *720:7 17.4163 
2 *720:7 *720:9 102.623 
3 *720:9 *789:cap_trim[2] 10.7317 
*END

*D_NET *721 0.100616
*CONN
*I *792:clk2_boost I *D CF_BUF_HIZ
*I *788:analog_ctrl[3] O *D afe_wb
*CAP
1 *792:clk2_boost 0.00476775
2 *788:analog_ctrl[3] 0.00208029
3 *721:25 0.0163669
4 *721:23 0.0136795
5 *792:clk2_boost *792:clk1_boostr 9.84589e-05
6 *792:clk2_boost *792:e_na_boost 1.91597e-05
7 *792:clk2_boost *792:e_n_boost 4.45483e-06
8 *721:23 *732:11 5.95174e-05
9 *721:23 *743:19 0
10 *721:23 *754:11 9.10018e-05
11 *721:23 *762:13 0.00257353
12 *721:23 *762:27 0.00158473
13 *721:23 *763:15 0.000645976
14 *721:23 *766:17 0.00103638
15 *721:23 *769:9 0.00252833
16 *721:23 *769:23 0.000149351
17 *721:23 *775:31 9.22073e-05
18 *721:23 *784:16 0.00149769
19 *792:tp *792:clk2_boost 0.0137107
20 *792:vinp_n *792:clk2_boost 3.29218e-06
21 *22:30 *792:clk2_boost 4.74658e-05
22 *24:38 *792:clk2_boost 0.000512556
23 *26:42 *792:clk2_boost 0.00238033
24 *665:27 *721:23 0.00234986
25 *699:21 *721:25 0.0302922
26 *710:19 *721:23 0.000140412
27 *710:21 *721:25 0.00390409
*RES
1 *788:analog_ctrl[3] *721:23 39.7561 
2 *721:23 *721:25 55.6801 
3 *721:25 *792:clk2_boost 34.5885 
*END

*D_NET *722 0.131602
*CONN
*I *789:icont_lv[0] I *D CF_ADC_SAR12
*I *788:analog_ctrl[40] O *D afe_wb
*CAP
1 *789:icont_lv[0] 0.00316616
2 *788:analog_ctrl[40] 0.00197324
3 *722:9 0.0280334
4 *722:7 0.0268405
5 *789:icont_lv[0] *789:icont_lv[1] 0.00106924
6 *789:icont_lv[0] *789:dft_outc[0] 0.00107791
7 *722:7 *723:7 0.00143491
8 *722:9 *755:9 0.0558386
9 *789:cap_trim[1] *789:icont_lv[0] 0.0018276
10 *789:dly_inc *789:icont_lv[0] 3.09365e-05
11 *646:9 *789:icont_lv[0] 0.000443289
12 *648:23 *789:icont_lv[0] 0.00843694
13 *720:7 *722:7 0.00142899
*RES
1 *788:analog_ctrl[40] *722:7 7.97713 
2 *722:7 *722:9 102.451 
3 *722:9 *789:icont_lv[0] 17.617 
*END

*D_NET *723 0.0982596
*CONN
*I *789:icont_lv[1] I *D CF_ADC_SAR12
*I *788:analog_ctrl[41] O *D afe_wb
*CAP
1 *789:icont_lv[1] 0.0017501
2 *788:analog_ctrl[41] 0.00436078
3 *723:9 0.0400332
4 *723:7 0.0426439
5 *723:7 *724:7 0.00220291
6 *723:7 *735:15 0.00190147
7 *789:cap_trim[1] *789:icont_lv[1] 0.00261254
8 *789:icont_lv[0] *789:icont_lv[1] 0.00106924
9 *789:dly_inc *789:icont_lv[1] 0.000250512
10 *720:7 *723:7 0
11 *720:9 *723:9 0
12 *722:7 *723:7 0.00143491
*RES
1 *788:analog_ctrl[41] *723:7 16.6006 
2 *723:7 *723:9 102.623 
3 *723:9 *789:icont_lv[1] 9.4785 
*END

*D_NET *724 0.10593
*CONN
*I *789:dft_inc[0] I *D CF_ADC_SAR12
*I *788:analog_ctrl[42] O *D afe_wb
*CAP
1 *789:dft_inc[0] 0.000422829
2 *788:analog_ctrl[42] 0.00663971
3 *724:9 0.0395082
4 *724:7 0.0457251
5 *789:dft_inc[0] *789:pd_ana 0.000112736
6 *789:dft_inc[0] *789:dft_inc[3] 8.17797e-05
7 *789:dft_inc[0] *789:dft_inc[1] 0.00012909
8 *789:dft_inc[0] *789:dft_outc[2] 8.40452e-05
9 *789:dft_inc[0] *789:dft_outc[1] 3.77564e-05
10 *724:7 *725:7 0.00105959
11 *724:7 *726:7 0
12 *724:7 *735:15 0.0048486
13 *724:9 *730:9 0
14 *789:trimunit *789:dft_inc[0] 3.50146e-05
15 *789:cap_trim[2] *789:dft_inc[0] 0.000309425
16 *789:cap_trim[1] *789:dft_inc[0] 0.000351354
17 *789:cap_trim[0] *789:dft_inc[0] 1.58754e-05
18 *789:cap_trim[0] *724:9 0.00403827
19 *789:dcen *724:9 0
20 *789:enable_hv *789:dft_inc[0] 0.0003279
21 *723:7 *724:7 0.00220291
*RES
1 *788:analog_ctrl[42] *724:7 24.2918 
2 *724:7 *724:9 103.57 
3 *724:9 *789:dft_inc[0] 4.03622 
*END

*D_NET *725 0.116039
*CONN
*I *789:dft_inc[1] I *D CF_ADC_SAR12
*I *788:analog_ctrl[43] O *D afe_wb
*CAP
1 *789:dft_inc[1] 0.00310392
2 *788:analog_ctrl[43] 0.00152629
3 *725:9 0.042899
4 *725:7 0.0413213
5 *789:dft_inc[1] *789:dft_inc[3] 0.00031128
6 *789:dft_inc[1] *789:dft_inc[2] 0.00020054
7 *789:dft_inc[1] *789:dft_outc[0] 0.000246496
8 *789:dft_inc[1] *791:trimTC[2] 0.000853178
9 *789:dft_inc[1] *748:23 0.00201887
10 *789:dft_inc[1] *749:23 0.00096019
11 *725:7 *726:7 0.0010655
12 *725:9 *727:9 0
13 *789:refby2 *725:9 0
14 *789:cap_trim[2] *789:dft_inc[1] 0.00317086
15 *789:dft_inc[0] *789:dft_inc[1] 0.00012909
16 *793:ch_cont *789:dft_inc[1] 0.00472799
17 *646:9 *789:dft_inc[1] 0
18 *648:9 *789:dft_inc[1] 0
19 *658:9 *789:dft_inc[1] 0.00741561
20 *661:26 *725:9 0
21 *705:9 *725:9 0.00502943
22 *724:7 *725:7 0.00105959
*RES
1 *788:analog_ctrl[43] *725:7 6.1126 
2 *725:7 *725:9 104.001 
3 *725:9 *789:dft_inc[1] 48.1941 
*END

*D_NET *726 0.112894
*CONN
*I *789:dft_inc[2] I *D CF_ADC_SAR12
*I *788:analog_ctrl[44] O *D afe_wb
*CAP
1 *789:dft_inc[2] 0.00050868
2 *788:analog_ctrl[44] 0.0110488
3 *726:9 0.0295639
4 *726:7 0.040104
5 *789:dft_inc[2] *789:dft_inc[3] 0.000131252
6 *726:7 *727:7 0.000857071
7 *726:7 *728:7 0
8 *726:7 *735:15 0
9 *789:dft_inc[1] *789:dft_inc[2] 0.00020054
10 *789:enable_hv *789:dft_inc[2] 0.00334378
11 *658:9 *789:dft_inc[2] 0.00334378
12 *672:9 *726:9 0.0227268
13 *724:7 *726:7 0
14 *725:7 *726:7 0.0010655
*RES
1 *788:analog_ctrl[44] *726:7 30.235 
2 *726:7 *726:9 104.432 
3 *726:9 *789:dft_inc[2] 8.72702 
*END

*D_NET *727 0.110623
*CONN
*I *789:dft_inc[3] I *D CF_ADC_SAR12
*I *788:analog_ctrl[45] O *D afe_wb
*CAP
1 *789:dft_inc[3] 0.00294419
2 *788:analog_ctrl[45] 0.00135741
3 *727:9 0.0421937
4 *727:7 0.0406069
5 *789:dft_inc[3] *789:dft_outc[0] 0.000321122
6 *789:dft_inc[3] *748:23 0.00265116
7 *727:7 *728:7 0.00086298
8 *789:en_pump_lv *789:dft_inc[3] 0.000142491
9 *789:trimunit *789:dft_inc[3] 2.49166e-06
10 *789:cap_trim[2] *789:dft_inc[3] 0.00369386
11 *789:pumpclk *789:dft_inc[3] 0.000238461
12 *789:dft_inc[2] *789:dft_inc[3] 0.000131252
13 *789:dft_inc[1] *789:dft_inc[3] 0.00031128
14 *789:dft_inc[0] *789:dft_inc[3] 8.17797e-05
15 *789:enable_hv *789:dft_inc[3] 0.000178215
16 *793:ch_cont *789:dft_inc[3] 0.00391024
17 *646:9 *789:dft_inc[3] 0.00222963
18 *648:23 *789:dft_inc[3] 0.00526609
19 *658:9 *789:dft_inc[3] 0.00264235
20 *725:9 *727:9 0
21 *726:7 *727:7 0.000857071
*RES
1 *788:analog_ctrl[45] *727:7 5.18033 
2 *727:7 *727:9 104.518 
3 *727:9 *789:dft_inc[3] 26.9301 
*END

*D_NET *728 0.129996
*CONN
*I *789:dft_outc[0] I *D CF_ADC_SAR12
*I *788:analog_ctrl[46] O *D afe_wb
*CAP
1 *789:dft_outc[0] 0.000839437
2 *788:analog_ctrl[46] 0.00605808
3 *728:9 0.0239588
4 *728:7 0.0291774
5 *789:dft_outc[0] *789:pd_ana 6.53017e-05
6 *789:dft_outc[0] *789:dft_outc[1] 0.000119711
7 *728:7 *729:7 0.00405379
8 *728:7 *730:7 0
9 *728:9 *729:9 0.0073246
10 *789:cap_trim[2] *789:dft_outc[0] 0.00224501
11 *789:cap_trim[1] *789:dft_outc[0] 0.000445437
12 *789:dft_inc[3] *789:dft_outc[0] 0.000321122
13 *789:dft_inc[1] *789:dft_outc[0] 0.000246496
14 *789:icont_lv[0] *789:dft_outc[0] 0.00107791
15 *789:dly_inc *789:dft_outc[0] 2.24045e-05
16 *789:dcen *789:dft_outc[0] 2.24303e-05
17 *648:9 *789:dft_outc[0] 0.00054108
18 *648:23 *789:dft_outc[0] 2.35067e-05
19 *696:9 *728:9 0.00113485
20 *718:9 *728:9 0.0514554
21 *726:7 *728:7 0
22 *727:7 *728:7 0.00086298
*RES
1 *788:analog_ctrl[46] *728:7 20.9123 
2 *728:7 *728:9 104.948 
3 *728:9 *789:dft_outc[0] 18.9688 
*END

*D_NET *729 0.109594
*CONN
*I *789:dft_outc[1] I *D CF_ADC_SAR12
*I *788:analog_ctrl[47] O *D afe_wb
*CAP
1 *789:dft_outc[1] 0.00335905
2 *788:analog_ctrl[47] 0.00449125
3 *729:9 0.0424405
4 *729:7 0.0435727
5 *789:dft_outc[1] *789:pd_ana 4.32417e-05
6 *789:dft_outc[1] *789:dft_outc[2] 4.81651e-05
7 *729:7 *730:7 0.00405971
8 *789:dft_inc[0] *789:dft_outc[1] 3.77564e-05
9 *789:dft_outc[0] *789:dft_outc[1] 0.000119711
10 *789:enable_hv *789:dft_outc[1] 4.32417e-05
11 *697:9 *729:9 0
12 *728:7 *729:7 0.00405379
13 *728:9 *729:9 0.0073246
*RES
1 *788:analog_ctrl[47] *729:7 20.4462 
2 *729:7 *729:9 105.293 
3 *729:9 *789:dft_outc[1] 3.45244 
*END

*D_NET *730 0.102206
*CONN
*I *789:dft_outc[2] I *D CF_ADC_SAR12
*I *788:analog_ctrl[48] O *D afe_wb
*CAP
1 *789:dft_outc[2] 0.00271518
2 *788:analog_ctrl[48] 0.00644841
3 *730:9 0.039835
4 *730:7 0.0435682
5 *789:dft_outc[2] *789:pd_ana 0.000147399
6 *789:dft_outc[2] *787:35 0.00311597
7 *730:7 *731:11 0.00206367
8 *730:7 *733:5 0
9 *789:trimunit *789:dft_outc[2] 9.08227e-05
10 *789:dft_inc[0] *789:dft_outc[2] 8.40452e-05
11 *789:dft_outc[1] *789:dft_outc[2] 4.81651e-05
12 *789:dcen *789:dft_outc[2] 2.91467e-05
13 *724:9 *730:9 0
14 *728:7 *730:7 0
15 *729:7 *730:7 0.00405971
*RES
1 *788:analog_ctrl[48] *730:7 23.3595 
2 *730:7 *730:9 99.7804 
3 *730:9 *789:dft_outc[2] 10.5444 
*END

*D_NET *731 0.153756
*CONN
*I *789:sel_csel_dft[0] I *D CF_ADC_SAR12
*I *788:analog_ctrl[49] O *D afe_wb
*CAP
1 *789:sel_csel_dft[0] 6.15609e-05
2 *788:analog_ctrl[49] 0.00373509
3 *731:17 0.0194953
4 *731:15 0.0194337
5 *731:13 0.0186745
6 *731:11 0.0224096
7 *789:sel_csel_dft[0] *789:sel_csel_dft[2] 1.44807e-05
8 *731:11 *733:5 0.00206658
9 *731:17 *733:17 0.0370149
10 *731:17 *735:17 0.0219993
11 *789:test_scanen *789:sel_csel_dft[0] 0
12 *789:test_scanen *731:17 0.000315741
13 *651:15 *789:sel_csel_dft[0] 4.21127e-05
14 *651:17 *731:17 0
15 *654:15 *789:sel_csel_dft[0] 1.19249e-05
16 *692:33 *731:17 0.00010103
17 *718:7 *731:13 0
18 *719:7 *731:13 0.00203753
19 *720:7 *731:13 0.00427928
20 *730:7 *731:11 0.00206367
*RES
1 *788:analog_ctrl[49] *731:11 32.4346 
2 *731:11 *731:13 49.7686 
3 *731:13 *731:15 0.5 
4 *731:15 *731:17 102.278 
5 *731:17 *789:sel_csel_dft[0] 1.62963 
*END

*D_NET *732 0.0952983
*CONN
*I *792:e_n_boost I *D CF_BUF_HIZ
*I *788:analog_ctrl[4] O *D afe_wb
*CAP
1 *792:e_n_boost 0.000609002
2 *788:analog_ctrl[4] 0.00165366
3 *732:17 0.0150874
4 *732:15 0.0216154
5 *732:11 0.00879063
6 *792:e_n_boost *792:clk1_boostr 3.28216e-05
7 *792:e_n_boost *792:e_na_boost 1.63944e-05
8 *732:11 *743:19 5.95174e-05
9 *732:11 *764:9 0.00327311
10 *732:11 *769:9 0
11 *732:11 *774:11 0.000476653
12 *732:15 *743:33 0
13 *732:15 *758:15 0.000422927
14 *732:15 *768:15 0
15 *732:15 *769:23 0
16 *732:15 *774:15 0.0126142
17 *732:15 *781:32 0.00168238
18 *732:17 *754:19 0.0285862
19 *788:adc_data[4] *732:15 0
20 *792:clk2_boost *792:e_n_boost 4.45483e-06
21 *792:vinp_n *792:e_n_boost 4.71087e-05
22 *22:30 *792:e_n_boost 0
23 *23:36 *792:e_n_boost 2.06886e-05
24 *25:28 *792:e_n_boost 7.02321e-05
25 *26:42 *792:e_n_boost 0.000176023
26 *655:25 *732:15 0
27 *721:23 *732:11 5.95174e-05
*RES
1 *788:analog_ctrl[4] *732:11 38.8493 
2 *732:11 *732:15 27.3698 
3 *732:15 *732:17 54.0436 
4 *732:17 *792:e_n_boost 11.1872 
*END

*D_NET *733 0.146885
*CONN
*I *789:sel_csel_dft[1] I *D CF_ADC_SAR12
*I *788:analog_ctrl[50] O *D afe_wb
*CAP
1 *789:sel_csel_dft[1] 0.000111474
2 *788:analog_ctrl[50] 0.0164275
3 *733:17 0.0157646
4 *733:15 0.0167703
5 *733:9 0.0132872
6 *733:7 0.01217
7 *733:5 0.0164275
8 *733:5 *734:5 0.0113808
9 *789:test_scanen *733:17 0.00173775
10 *651:17 *733:17 0
11 *655:21 *733:9 0.00372687
12 *705:13 *733:15 0
13 *730:7 *733:5 0
14 *731:11 *733:5 0.00206658
15 *731:17 *733:17 0.0370149
*RES
1 *788:analog_ctrl[50] *733:5 57.2077 
2 *733:5 *733:7 0.5 
3 *733:7 *733:9 219.405 
4 *733:9 *733:15 3.86393 
5 *733:15 *733:17 67.7388 
6 *733:17 *789:sel_csel_dft[1] 1.2223 
*END

*D_NET *734 0.171027
*CONN
*I *789:sel_csel_dft[2] I *D CF_ADC_SAR12
*I *788:analog_ctrl[51] O *D afe_wb
*CAP
1 *789:sel_csel_dft[2] 0.00374823
2 *788:analog_ctrl[51] 0.015314
3 *734:9 0.0387514
4 *734:7 0.0350032
5 *734:5 0.015314
6 *734:5 *735:11 0.00223345
7 *734:5 *736:5 0
8 *789:test_scanen *789:sel_csel_dft[2] 4.82389e-06
9 *789:sel_csel_dft[0] *789:sel_csel_dft[2] 1.44807e-05
10 *789:hiz *789:sel_csel_dft[2] 0
11 *789:sof *789:sel_csel_dft[2] 0
12 *789:sample_width[0] *734:9 0.000442053
13 *651:15 *789:sel_csel_dft[2] 3.14274e-05
14 *654:15 *789:sel_csel_dft[2] 2.21844e-05
15 *704:9 *734:9 0.048767
16 *733:5 *734:5 0.0113808
*RES
1 *788:analog_ctrl[51] *734:5 54.5566 
2 *734:5 *734:7 0.5 
3 *734:7 *734:9 106.671 
4 *734:9 *789:sel_csel_dft[2] 2.91704 
*END

*D_NET *735 0.156372
*CONN
*I *789:sel_csel_dft[3] I *D CF_ADC_SAR12
*I *788:analog_ctrl[52] O *D afe_wb
*CAP
1 *789:sel_csel_dft[3] 2.99472e-05
2 *788:analog_ctrl[52] 0.00403711
3 *735:17 0.016977
4 *735:15 0.0337068
5 *735:11 0.0207969
6 *735:11 *736:5 0.00223345
7 *692:17 *735:17 0.0153795
8 *692:33 *735:17 0.0322288
9 *720:7 *735:15 0
10 *723:7 *735:15 0.00190147
11 *724:7 *735:15 0.0048486
12 *726:7 *735:15 0
13 *731:17 *735:17 0.0219993
14 *734:5 *735:11 0.00223345
*RES
1 *788:analog_ctrl[52] *735:11 33.8769 
2 *735:11 *735:15 49.6859 
3 *735:15 *735:17 101.848 
4 *735:17 *789:sel_csel_dft[3] 1.05763 
*END

*D_NET *736 0.112307
*CONN
*I *790:vref[0] I *D CF_ADC_SAR12_sar_refs
*I *788:analog_ctrl[53] O *D afe_wb
*CAP
1 *790:vref[0] 0.017603
2 *788:analog_ctrl[53] 0.0270447
3 *736:5 0.0446477
4 *790:vref[0] *790:vref[4] 0.000534019
5 *790:vref[0] *790:vref[1] 0.000405632
6 *736:5 *737:5 0.0198389
7 *659:114 *790:vref[0] 0
8 *734:5 *736:5 0
9 *735:11 *736:5 0.00223345
*RES
1 *788:analog_ctrl[53] *736:5 94.6441 
2 *736:5 *790:vref[0] 45.1902 
*END

*D_NET *737 0.122443
*CONN
*I *790:vref[1] I *D CF_ADC_SAR12_sar_refs
*I *788:analog_ctrl[54] O *D afe_wb
*CAP
1 *790:vref[1] 0.0102414
2 *788:analog_ctrl[54] 0.0279998
3 *737:5 0.0382412
4 *790:vref[1] *790:vref[4] 0.0228414
5 *737:5 *738:11 0.00267884
6 *737:5 *739:7 0
7 *790:vref[0] *790:vref[1] 0.000405632
8 *659:114 *790:vref[1] 0.000132944
9 *661:5 *790:vref[1] 6.3121e-05
10 *736:5 *737:5 0.0198389
*RES
1 *788:analog_ctrl[54] *737:5 96.6251 
2 *737:5 *790:vref[1] 44.2902 
*END

*D_NET *738 0.118424
*CONN
*I *790:vref[2] I *D CF_ADC_SAR12_sar_refs
*I *788:analog_ctrl[55] O *D afe_wb
*CAP
1 *790:vref[2] 0.00866087
2 *788:analog_ctrl[55] 0.00829566
3 *738:13 0.0389196
4 *738:11 0.0385544
5 *790:vref[2] *790:vref[4] 3.33606e-05
6 *790:vref[2] *790:vref[3] 0.00632496
7 *738:11 *739:7 0.00226276
8 *738:11 *783:17 0.000911597
9 *693:5 *738:13 0
10 *695:7 *738:13 0.00978326
11 *696:7 *738:13 0.00199913
12 *737:5 *738:11 0.00267884
*RES
1 *788:analog_ctrl[55] *738:11 27.809 
2 *738:11 *738:13 84.5247 
3 *738:13 *790:vref[2] 29.9142 
*END

*D_NET *739 0.114432
*CONN
*I *790:vref[3] I *D CF_ADC_SAR12_sar_refs
*I *788:analog_ctrl[56] O *D afe_wb
*CAP
1 *790:vref[3] 0.00948161
2 *788:analog_ctrl[56] 0.0130403
3 *739:13 0.030835
4 *739:11 0.0248716
5 *739:7 0.0165585
6 *739:7 *740:5 0.00719815
7 *790:vref[2] *790:vref[3] 0.00632496
8 *662:22 *790:vref[3] 0.000140149
9 *707:7 *739:13 0
10 *709:7 *739:13 0.00346413
11 *711:7 *739:13 0.000255187
12 *737:5 *739:7 0
13 *738:11 *739:7 0.00226276
*RES
1 *788:analog_ctrl[56] *739:7 42.0049 
2 *739:7 *739:11 9.92653 
3 *739:11 *739:13 56.7897 
4 *739:13 *790:vref[3] 34.2684 
*END

*D_NET *740 0.127357
*CONN
*I *790:vref[4] I *D CF_ADC_SAR12_sar_refs
*I *788:analog_ctrl[57] O *D afe_wb
*CAP
1 *790:vref[4] 0.0109494
2 *788:analog_ctrl[57] 0.031416
3 *740:5 0.0423654
4 *740:5 *741:5 0.0119369
5 *790:vref[2] *790:vref[4] 3.33606e-05
6 *790:vref[1] *790:vref[4] 0.0228414
7 *790:vref[0] *790:vref[4] 0.000534019
8 *659:114 *790:vref[4] 0
9 *662:22 *790:vref[4] 8.20096e-05
10 *739:7 *740:5 0.00719815
*RES
1 *788:analog_ctrl[57] *740:5 96.5086 
2 *740:5 *790:vref[4] 46.0528 
*END

*D_NET *741 0.102575
*CONN
*I *790:PWR_CTRL_VREF[0] I *D CF_ADC_SAR12_sar_refs
*I *788:analog_ctrl[58] O *D afe_wb
*CAP
1 *790:PWR_CTRL_VREF[0] 0.00165096
2 *788:analog_ctrl[58] 0.0160862
3 *741:9 0.0210002
4 *741:7 0.0193492
5 *741:5 0.0160862
6 *790:PWR_CTRL_VREF[0] *790:PWR_CTRL_VREF[1] 5.85567e-05
7 *790:PWR_CTRL_VREF[0] *742:13 0.0025316
8 *741:5 *742:5 0.0138756
9 *741:5 *744:5 0
10 *740:5 *741:5 0.0119369
*RES
1 *788:analog_ctrl[58] *741:5 68.5697 
2 *741:5 *741:7 0.5 
3 *741:7 *741:9 351.367 
4 *741:9 *790:PWR_CTRL_VREF[0] 45.445 
*END

*D_NET *742 0.102246
*CONN
*I *790:PWR_CTRL_VREF[1] I *D CF_ADC_SAR12_sar_refs
*I *788:analog_ctrl[59] O *D afe_wb
*CAP
1 *790:PWR_CTRL_VREF[1] 4.87356e-05
2 *788:analog_ctrl[59] 0.0133567
3 *742:13 0.00163689
4 *742:11 0.00158815
5 *742:9 0.0195127
6 *742:7 0.0195127
7 *742:5 0.0133567
8 *742:5 *744:5 0.0138756
9 *742:13 *747:15 0.00185805
10 *790:PWR_CTRL_VREF[0] *790:PWR_CTRL_VREF[1] 5.85567e-05
11 *790:PWR_CTRL_VREF[0] *742:13 0.0025316
12 *790:PD_BUF_VREF *790:PWR_CTRL_VREF[1] 0.000122127
13 *790:PD_BUF_VREF *742:13 0.000911795
14 *647:13 *742:9 0
15 *676:9 *742:9 0
16 *687:9 *742:9 0
17 *693:9 *742:9 0
18 *741:5 *742:5 0.0138756
*RES
1 *788:analog_ctrl[59] *742:5 65.9477 
2 *742:5 *742:7 0.5 
3 *742:7 *742:9 353.918 
4 *742:9 *742:11 2 
5 *742:11 *742:13 55.305 
6 *742:13 *790:PWR_CTRL_VREF[1] 1.63875 
*END

*D_NET *743 0.0838043
*CONN
*I *792:e_na_boost I *D CF_BUF_HIZ
*I *788:analog_ctrl[5] O *D afe_wb
*CAP
1 *792:e_na_boost 3.97868e-05
2 *788:analog_ctrl[5] 0.00234086
3 *743:37 0.0114735
4 *743:35 0.0114337
5 *743:33 0.0147577
6 *743:19 0.0170986
7 *792:e_na_boost *792:clk1_boostr 4.5578e-05
8 *743:19 *754:9 1.11157e-05
9 *743:19 *758:9 0.000469308
10 *743:19 *763:9 0.000269815
11 *743:19 *775:19 0.00049991
12 *743:33 *758:15 0.00307579
13 *743:33 *763:15 1.94009e-05
14 *743:33 *769:23 0.000235105
15 *743:37 *792:clk1_boostr 0.000356373
16 *743:37 *754:19 0.00421598
17 *792:clk2_boost *792:e_na_boost 1.91597e-05
18 *792:e_n_boost *792:e_na_boost 1.63944e-05
19 *12:42 *743:37 9.034e-05
20 *24:38 *743:37 4.89258e-05
21 *647:17 *743:33 0.000525441
22 *692:11 *743:19 0.000725196
23 *698:9 *743:19 0.00118723
24 *706:13 *743:19 9.57834e-05
25 *710:19 *743:33 0.0038816
26 *710:21 *743:33 0.0108121
27 *721:23 *743:19 0
28 *732:11 *743:19 5.95174e-05
29 *732:15 *743:33 0
*RES
1 *788:analog_ctrl[5] *743:19 45.2209 
2 *743:19 *743:33 49.754 
3 *743:33 *743:35 0.5 
4 *743:35 *743:37 209.333 
5 *743:37 *792:e_na_boost 3.1025 
*END

*D_NET *744 0.106793
*CONN
*I *790:muxsarref[0] I *D CF_ADC_SAR12_sar_refs
*I *788:analog_ctrl[60] O *D afe_wb
*CAP
1 *790:muxsarref[0] 0.0015699
2 *788:analog_ctrl[60] 0.0149378
3 *744:9 0.0168406
4 *744:7 0.0152707
5 *744:5 0.0149378
6 *790:muxsarref[0] *790:muxsarref[2] 0.000145049
7 *790:muxsarref[0] *790:muxsarref[1] 0.00161023
8 *744:5 *745:5 0.0149634
9 *684:9 *744:9 0.0126423
10 *741:5 *744:5 0
11 *742:5 *744:5 0.0138756
*RES
1 *788:analog_ctrl[60] *744:5 71.1917 
2 *744:5 *744:7 0.5 
3 *744:7 *744:9 277.545 
4 *744:9 *790:muxsarref[0] 6.71042 
*END

*D_NET *745 0.107038
*CONN
*I *790:muxsarref[1] I *D CF_ADC_SAR12_sar_refs
*I *788:analog_ctrl[61] O *D afe_wb
*CAP
1 *790:muxsarref[1] 0.000773416
2 *788:analog_ctrl[61] 0.0151041
3 *745:9 0.0161287
4 *745:7 0.0153553
5 *745:5 0.0151041
6 *790:muxsarref[1] *790:muxsarref[2] 0
7 *745:5 *746:5 0.0152859
8 *790:muxsarref[0] *790:muxsarref[1] 0.00161023
9 *683:14 *745:9 0.0127131
10 *744:5 *745:5 0.0149634
*RES
1 *788:analog_ctrl[61] *745:5 72.9397 
2 *745:5 *745:7 0.5 
3 *745:7 *745:9 279.075 
4 *745:9 *790:muxsarref[1] 4.80117 
*END

*D_NET *746 0.112778
*CONN
*I *790:muxsarref[2] I *D CF_ADC_SAR12_sar_refs
*I *788:analog_ctrl[62] O *D afe_wb
*CAP
1 *790:muxsarref[2] 0.000914219
2 *788:analog_ctrl[62] 0.0158875
3 *746:9 0.0104836
4 *746:7 0.00956937
5 *746:5 0.0158875
6 *746:5 *747:5 0.0140709
7 *790:muxsarref[1] *790:muxsarref[2] 0
8 *790:muxsarref[0] *790:muxsarref[2] 0.000145049
9 *680:9 *746:9 0.00566356
10 *689:19 *746:9 0.02487
11 *745:5 *746:5 0.0152859
*RES
1 *788:analog_ctrl[62] *746:5 73.9303 
2 *746:5 *746:7 0.5 
3 *746:7 *746:9 278.055 
4 *746:9 *790:muxsarref[2] 8.14737 
*END

*D_NET *747 0.101844
*CONN
*I *790:EN_RESVDA I *D CF_ADC_SAR12_sar_refs
*I *788:analog_ctrl[63] O *D afe_wb
*CAP
1 *790:EN_RESVDA 0.000132346
2 *788:analog_ctrl[63] 0.0194264
3 *747:15 0.00188569
4 *747:9 0.0217665
5 *747:7 0.0200132
6 *747:5 0.0194264
7 *747:5 *748:7 0.00046815
8 *790:pd_vcmbuf *790:EN_RESVDA 0.000511902
9 *790:pd_vcmbuf *747:15 0.000291663
10 *790:enable_hv *790:EN_RESVDA 0.00012446
11 *790:enable_hv *747:15 0.000932821
12 *790:PD_BUF_VREF *790:EN_RESVDA 0.000794067
13 *790:PD_BUF_VREF *747:15 0.000141784
14 *652:17 *747:9 0
15 *687:9 *747:9 0
16 *742:13 *747:15 0.00185805
17 *746:5 *747:5 0.0140709
*RES
1 *788:analog_ctrl[63] *747:5 66.8217 
2 *747:5 *747:7 0.5 
3 *747:7 *747:9 362.842 
4 *747:9 *747:15 46.4525 
5 *747:15 *790:EN_RESVDA 7.695 
*END

*D_NET *748 0.13189
*CONN
*I *791:trimTC[0] I *D CF_BGR
*I *788:analog_ctrl[64] O *D afe_wb
*CAP
1 *791:trimTC[0] 0.000576316
2 *788:analog_ctrl[64] 0.0011716
3 *748:23 0.00265696
4 *748:9 0.0291341
5 *748:7 0.0282251
6 *791:trimTC[0] *791:trimTC[2] 0
7 *791:trimTC[0] *791:trimTC[1] 0.000430822
8 *748:7 *749:7 0.000183573
9 *748:7 *750:7 0
10 *748:9 *753:9 0.0605583
11 *748:23 *791:trimTC[5] 0.001421
12 *748:23 *749:23 0.00102548
13 *789:dft_inc[3] *748:23 0.00265116
14 *789:dft_inc[1] *748:23 0.00201887
15 *646:9 *748:23 0.000219491
16 *648:23 *748:23 0.000361092
17 *650:13 *748:23 0.000788435
18 *747:5 *748:7 0.00046815
*RES
1 *788:analog_ctrl[64] *748:7 3.54887 
2 *748:7 *748:9 111.15 
3 *748:9 *748:23 39.5917 
4 *748:23 *791:trimTC[0] 12.57 
*END

*D_NET *749 0.0936978
*CONN
*I *791:trimTC[1] I *D CF_BGR
*I *788:analog_ctrl[65] O *D afe_wb
*CAP
1 *791:trimTC[1] 0.000920075
2 *788:analog_ctrl[65] 0.000462658
3 *749:23 0.00368137
4 *749:9 0.0400009
5 *749:7 0.0377022
6 *791:trimTC[1] *791:trimTC[2] 0
7 *749:7 *750:7 0.000216016
8 *749:9 *762:9 0
9 *749:9 *762:13 0
10 *749:9 *768:9 0
11 *749:23 *791:trimTC[2] 0.000196592
12 *789:dft_inc[1] *749:23 0.00096019
13 *791:trimTC[0] *791:trimTC[1] 0.000430822
14 *26:18 *749:23 0
15 *646:9 *749:23 0
16 *648:23 *749:23 0
17 *658:9 *749:23 0.00440806
18 *706:11 *749:9 0.00350985
19 *748:7 *749:7 0.000183573
20 *748:23 *749:23 0.00102548
*RES
1 *788:analog_ctrl[65] *749:7 1.77173 
2 *749:7 *749:9 661.065 
3 *749:9 *749:23 43.7706 
4 *749:23 *791:trimTC[1] 17.9137 
*END

*D_NET *750 0.120598
*CONN
*I *791:trimTC[2] I *D CF_BGR
*I *788:analog_ctrl[66] O *D afe_wb
*CAP
1 *791:trimTC[2] 0.0012268
2 *788:analog_ctrl[66] 0.00426385
3 *750:9 0.0548327
4 *750:7 0.0578697
5 *791:trimTC[2] *791:trimTC[4] 0
6 *791:trimTC[2] *791:trimTC[3] 0.000226446
7 *750:7 *751:9 6.22482e-05
8 *750:7 *752:7 0
9 *789:dft_inc[1] *791:trimTC[2] 0.000853178
10 *791:trimTC[0] *791:trimTC[2] 0
11 *791:trimTC[1] *791:trimTC[2] 0
12 *658:9 *791:trimTC[2] 0.000850399
13 *748:7 *750:7 0
14 *749:7 *750:7 0.000216016
15 *749:23 *791:trimTC[2] 0.000196592
*RES
1 *788:analog_ctrl[66] *750:7 11.1235 
2 *750:7 *750:9 112.011 
3 *750:9 *791:trimTC[2] 20.4707 
*END

*D_NET *751 0.159998
*CONN
*I *791:trimTC[3] I *D CF_BGR
*I *788:analog_ctrl[67] O *D afe_wb
*CAP
1 *791:trimTC[3] 0.000220036
2 *788:analog_ctrl[67] 0.000249018
3 *751:19 0.00388589
4 *751:17 0.00393552
5 *751:11 0.0113497
6 *751:9 0.0113291
7 *791:trimTC[3] *791:trimTC[4] 0
8 *751:11 *757:9 0.0583392
9 *751:11 *764:9 0
10 *751:11 *767:11 0.0574285
11 *751:11 *771:11 0
12 *751:11 *782:6 0.00990107
13 *791:trimTC[2] *791:trimTC[3] 0.000226446
14 *3:30 *751:17 0.000220063
15 *3:30 *751:19 0.000872331
16 *6:20 *751:17 0
17 *12:28 *751:19 0
18 *12:42 *751:19 0.000809317
19 *29:38 *751:19 0.00116927
20 *29:50 *751:19 0
21 *750:7 *751:9 6.22482e-05
*RES
1 *788:analog_ctrl[67] *751:9 0.9028 
2 *751:9 *751:11 676.747 
3 *751:11 *751:17 6.7775 
4 *751:17 *751:19 64.7925 
5 *751:19 *791:trimTC[3] 6.9575 
*END

*D_NET *752 0.130089
*CONN
*I *791:trimTC[4] I *D CF_BGR
*I *788:analog_ctrl[68] O *D afe_wb
*CAP
1 *791:trimTC[4] 0.00077887
2 *788:analog_ctrl[68] 0.00367799
3 *752:9 0.0288077
4 *752:7 0.0317068
5 *791:trimTC[4] *791:trimTC[5] 0.000992439
6 *752:7 *753:7 0.000528168
7 *752:7 *755:7 0
8 *791:trimTC[3] *791:trimTC[4] 0
9 *791:trimTC[2] *791:trimTC[4] 0
10 *22:14 *791:trimTC[4] 0.000859531
11 *650:13 *791:trimTC[4] 0.00145231
12 *673:9 *752:9 0.0612853
13 *750:7 *752:7 0
*RES
1 *788:analog_ctrl[68] *752:7 9.72513 
2 *752:7 *752:9 113.734 
3 *752:9 *791:trimTC[4] 15.2622 
*END

*D_NET *753 0.133086
*CONN
*I *791:trimTC[5] I *D CF_BGR
*I *788:analog_ctrl[69] O *D afe_wb
*CAP
1 *791:trimTC[5] 0.00171879
2 *788:analog_ctrl[69] 0.000940111
3 *753:9 0.0300831
4 *753:7 0.0293044
5 *791:trimTC[5] *791:trimTC[6] 0
6 *753:7 *755:7 0.000458162
7 *753:9 *775:19 0
8 *791:trimTC[4] *791:trimTC[5] 0.000992439
9 *22:14 *791:trimTC[5] 0.00251119
10 *650:13 *791:trimTC[5] 0.00457071
11 *748:9 *753:9 0.0605583
12 *748:23 *791:trimTC[5] 0.001421
13 *752:7 *753:7 0.000528168
*RES
1 *788:analog_ctrl[69] *753:7 3.43233 
2 *753:7 *753:9 114.079 
3 *753:9 *791:trimTC[5] 36.4996 
*END

*D_NET *754 0.0886743
*CONN
*I *792:clk1_boostr I *D CF_BUF_HIZ
*I *788:analog_ctrl[6] O *D afe_wb
*CAP
1 *792:clk1_boostr 0.000253807
2 *788:analog_ctrl[6] 0.000289768
3 *754:19 0.0126117
4 *754:17 0.022936
5 *754:11 0.0117628
6 *754:9 0.00147439
7 *754:11 *767:11 0.00441407
8 *754:11 *775:31 5.76217e-05
9 *754:11 *777:11 0.00143669
10 *754:11 *778:11 0
11 *792:clk2_boost *792:clk1_boostr 9.84589e-05
12 *792:e_na_boost *792:clk1_boostr 4.5578e-05
13 *792:e_n_boost *792:clk1_boostr 3.28216e-05
14 *655:25 *754:17 0
15 *721:23 *754:11 9.10018e-05
16 *732:17 *754:19 0.0285862
17 *743:19 *754:9 1.11157e-05
18 *743:37 *792:clk1_boostr 0.000356373
19 *743:37 *754:19 0.00421598
*RES
1 *788:analog_ctrl[6] *754:9 0.844533 
2 *754:9 *754:11 50.085 
3 *754:11 *754:17 27.4619 
4 *754:17 *754:19 52.1487 
5 *754:19 *792:clk1_boostr 8.41463 
*END

*D_NET *755 0.126546
*CONN
*I *791:trimTC[6] I *D CF_BGR
*I *788:analog_ctrl[70] O *D afe_wb
*CAP
1 *791:trimTC[6] 0.0010773
2 *788:analog_ctrl[70] 0.00301035
3 *755:9 0.0314368
4 *755:7 0.0333698
5 *755:7 *756:7 2.82889e-05
6 *789:refby2 *755:9 0
7 *791:trimTC[5] *791:trimTC[6] 0
8 *6:16 *791:trimTC[6] 0.00132714
9 *661:26 *755:9 0
10 *722:9 *755:9 0.0558386
11 *752:7 *755:7 0
12 *753:7 *755:7 0.000458162
*RES
1 *788:analog_ctrl[70] *755:7 7.8606 
2 *755:7 *755:9 116.146 
3 *755:9 *791:trimTC[6] 6.48112 
*END

*D_NET *756 0.166616
*CONN
*I *791:trimCurr[0] I *D CF_BGR
*I *788:analog_ctrl[71] O *D afe_wb
*CAP
1 *791:trimCurr[0] 0.000636937
2 *788:analog_ctrl[71] 0.000109471
3 *756:15 0.00819792
4 *756:9 0.0176637
5 *756:7 0.0102121
6 *791:trimCurr[0] *791:trimCurr[2] 0.000109877
7 *791:trimCurr[0] *758:25 0.00352575
8 *791:trimCurr[0] *759:17 0.00356908
9 *756:7 *757:7 1.99942e-05
10 *756:9 *757:9 0.0578348
11 *756:9 *759:9 0.00113254
12 *756:9 *764:9 0
13 *756:9 *770:9 0.0536658
14 *756:9 *772:11 0.00990961
15 *756:15 *767:17 0
16 *755:7 *756:7 2.82889e-05
*RES
1 *788:analog_ctrl[71] *756:7 0.722933 
2 *756:7 *756:9 650.355 
3 *756:9 *756:15 19.1589 
4 *756:15 *791:trimCurr[0] 41.0962 
*END

*D_NET *757 0.164651
*CONN
*I *791:trimCurr[1] I *D CF_BGR
*I *788:analog_ctrl[72] O *D afe_wb
*CAP
1 *791:trimCurr[1] 0.0080895
2 *788:analog_ctrl[72] 7.80073e-05
3 *757:9 0.0182405
4 *757:7 0.010229
5 *791:trimCurr[1] *791:CurrAbsTrim[1] 8.72957e-05
6 *791:trimCurr[1] *759:17 0
7 *791:trimCurr[1] *763:25 0.00216926
8 *791:trimCurr[1] *771:21 0
9 *757:7 *758:7 2.21505e-05
10 *757:9 *764:9 0
11 *757:9 *767:11 0.000586936
12 *757:9 *770:9 9.95479e-05
13 *757:9 *772:11 0.00885454
14 *648:23 *791:trimCurr[1] 0
15 *751:11 *757:9 0.0583392
16 *756:7 *757:7 1.99942e-05
17 *756:9 *757:9 0.0578348
*RES
1 *788:analog_ctrl[72] *757:7 0.664667 
2 *757:7 *757:9 667.695 
3 *757:9 *791:trimCurr[1] 44.6166 
*END

*D_NET *758 0.144694
*CONN
*I *791:trimCurr[2] I *D CF_BGR
*I *788:analog_ctrl[73] O *D afe_wb
*CAP
1 *791:trimCurr[2] 2.86144e-05
2 *788:analog_ctrl[73] 0.000914801
3 *758:25 0.00215223
4 *758:23 0.00381532
5 *758:17 0.0237812
6 *758:15 0.0234407
7 *758:9 0.00569589
8 *758:7 0.00525952
9 *791:trimCurr[2] *791:trimCurr[4] 1.69019e-05
10 *791:trimCurr[2] *791:trimCurr[3] 6.99921e-05
11 *758:7 *759:7 4.58052e-05
12 *758:9 *761:9 0.00705698
13 *758:9 *761:19 4.36573e-06
14 *758:9 *763:9 0.00507277
15 *758:9 *768:9 3.8711e-05
16 *758:9 *775:19 0.000632419
17 *758:17 *784:18 0.0225947
18 *758:23 *791:inl_ctrl[0] 0.00116388
19 *758:23 *761:31 0.0102248
20 *758:23 *762:35 0.000417978
21 *758:23 *768:23 0.00945992
22 *758:25 *759:17 0.00128283
23 *758:25 *760:21 0.00851581
24 *758:25 *763:25 0
25 *791:trimCurr[0] *791:trimCurr[2] 0.000109877
26 *791:trimCurr[0] *758:25 0.00352575
27 *652:21 *758:15 0.000346427
28 *699:19 *758:9 0.0024027
29 *710:19 *758:9 0.00263306
30 *732:15 *758:15 0.000422927
31 *743:19 *758:9 0.000469308
32 *743:33 *758:15 0.00307579
33 *757:7 *758:7 2.21505e-05
*RES
1 *788:analog_ctrl[73] *758:7 2.41267 
2 *758:7 *758:9 175.545 
3 *758:9 *758:15 5.72847 
4 *758:15 *758:17 71.4425 
5 *758:17 *758:23 16.2165 
6 *758:23 *758:25 95.985 
7 *758:25 *791:trimCurr[2] 1.27875 
*END

*D_NET *759 0.163815
*CONN
*I *791:trimCurr[3] I *D CF_BGR
*I *788:analog_ctrl[74] O *D afe_wb
*CAP
1 *791:trimCurr[3] 8.6795e-05
2 *788:analog_ctrl[74] 0.000151443
3 *759:17 0.00247238
4 *759:15 0.00844101
5 *759:9 0.0154574
6 *759:7 0.00955344
7 *791:trimCurr[3] *791:trimCurr[4] 7.12517e-05
8 *759:7 *760:7 4.58052e-05
9 *759:9 *760:9 0.0532486
10 *759:9 *764:9 0.00169363
11 *759:9 *770:9 0.0542067
12 *759:9 *772:11 0.00801866
13 *759:9 *779:11 0.000779761
14 *759:15 *773:19 0
15 *759:17 *763:25 0
16 *791:trimCurr[2] *791:trimCurr[3] 6.99921e-05
17 *791:trimCurr[0] *759:17 0.00356908
18 *791:trimCurr[1] *759:17 0
19 *4:34 *759:15 0.000195526
20 *11:18 *759:15 0
21 *19:20 *759:15 0.00329277
22 *756:9 *759:9 0.00113254
23 *758:7 *759:7 4.58052e-05
24 *758:25 *759:17 0.00128283
*RES
1 *788:analog_ctrl[74] *759:7 0.839467 
2 *759:7 *759:9 631.485 
3 *759:9 *759:15 19.2172 
4 *759:15 *759:17 65.2575 
5 *759:17 *791:trimCurr[3] 5.66125 
*END

*D_NET *760 0.176802
*CONN
*I *791:trimCurr[4] I *D CF_BGR
*I *788:analog_ctrl[75] O *D afe_wb
*CAP
1 *791:trimCurr[4] 5.02551e-05
2 *788:analog_ctrl[75] 0.000181167
3 *760:21 0.00350432
4 *760:19 0.00711426
5 *760:9 0.0125009
6 *760:7 0.00902192
7 *791:trimCurr[4] *791:CurrAbsTrim[0] 0
8 *760:7 *761:7 5.45633e-05
9 *760:9 *764:9 0.0534333
10 *760:9 *770:9 0.000102765
11 *760:9 *772:11 0.00568339
12 *760:9 *774:11 0.000697341
13 *760:19 *791:inl_ctrl[0] 0.00149257
14 *760:19 *761:31 0.00979047
15 *760:19 *763:23 0.00722304
16 *760:19 *766:25 0.000123408
17 *760:19 *772:21 0
18 *760:19 *775:43 0.000304757
19 *760:19 *775:45 0.00320551
20 *760:21 *791:inl_ctrl[0] 0.000419765
21 *760:21 *761:33 0
22 *760:21 *762:37 0
23 *760:21 *763:25 0
24 *791:trimCurr[3] *791:trimCurr[4] 7.12517e-05
25 *791:trimCurr[2] *791:trimCurr[4] 1.69019e-05
26 *758:25 *760:21 0.00851581
27 *759:7 *760:7 4.58052e-05
28 *759:9 *760:9 0.0532486
*RES
1 *788:analog_ctrl[75] *760:7 0.897733 
2 *760:7 *760:9 600.885 
3 *760:9 *760:19 19.6124 
4 *760:19 *760:21 97.005 
5 *760:21 *791:trimCurr[4] 1.28625 
*END

*D_NET *761 0.144999
*CONN
*I *791:trimCurr[5] I *D CF_BGR
*I *788:analog_ctrl[76] O *D afe_wb
*CAP
1 *791:trimCurr[5] 3.34799e-05
2 *788:analog_ctrl[76] 0.000775856
3 *761:33 0.00359239
4 *761:31 0.00564592
5 *761:25 0.0179285
6 *761:23 0.0168727
7 *761:19 0.00153513
8 *761:9 0.00410535
9 *761:7 0.00437722
10 *791:trimCurr[5] *791:CurrAbsTrim[0] 5.80856e-05
11 *791:trimCurr[5] *791:inl_ctrl[0] 0
12 *761:7 *762:7 0.0001539
13 *761:7 *763:7 0
14 *761:9 *763:9 0
15 *761:9 *768:9 0.0132882
16 *761:19 *763:9 0.00217245
17 *761:19 *775:19 0.000484576
18 *761:23 *781:32 0.000481268
19 *761:25 *768:17 0.0216367
20 *761:31 *791:inl_ctrl[0] 0.00140247
21 *761:31 *762:35 0.000139557
22 *761:31 *768:23 0.000208312
23 *761:31 *775:45 0.000792781
24 *761:31 *775:55 8.75811e-06
25 *761:31 *778:17 0
26 *761:33 *791:CurrAbsTrim[0] 2.74701e-05
27 *761:33 *791:inl_ctrl[5] 0.00146884
28 *761:33 *762:37 0.00842538
29 *761:33 *770:17 0
30 *761:33 *772:23 0
31 *761:33 *774:17 0.000147915
32 *647:17 *761:23 0.00105319
33 *653:37 *761:23 0
34 *658:13 *761:25 0.00816775
35 *698:9 *761:19 8.17371e-05
36 *699:19 *761:9 0.000150181
37 *710:19 *761:19 0.00230523
38 *710:19 *761:23 0.000346427
39 *758:9 *761:9 0.00705698
40 *758:9 *761:19 4.36573e-06
41 *758:23 *761:31 0.0102248
42 *760:7 *761:7 5.45633e-05
43 *760:19 *761:31 0.00979047
44 *760:21 *761:33 0
*RES
1 *788:analog_ctrl[76] *761:7 2.29613 
2 *761:7 *761:9 154.762 
3 *761:9 *761:19 33.6 
4 *761:19 *761:23 26.6 
5 *761:23 *761:25 423.277 
6 *761:25 *761:31 17.4692 
7 *761:31 *761:33 97.005 
8 *761:33 *791:trimCurr[5] 0.84375 
*END

*D_NET *762 0.15388
*CONN
*I *791:CurrAbsTrim[0] I *D CF_BGR
*I *788:analog_ctrl[77] O *D afe_wb
*CAP
1 *791:CurrAbsTrim[0] 5.23712e-05
2 *788:analog_ctrl[77] 0.000325141
3 *762:37 0.003405
4 *762:35 0.00615398
5 *762:29 0.0125331
6 *762:27 0.0113865
7 *762:13 0.00426269
8 *762:11 0.00263269
9 *762:9 0.00416304
10 *762:7 0.0044634
11 *762:7 *763:7 0.000139707
12 *762:9 *766:17 0.000225067
13 *762:9 *769:9 0.00982536
14 *762:13 *766:17 0.000321988
15 *762:13 *769:9 0.00197466
16 *762:27 *763:15 3.16829e-05
17 *762:27 *766:17 0.000652557
18 *762:27 *769:23 0.00133686
19 *762:27 *775:31 2.39856e-05
20 *762:29 *763:17 0.0391486
21 *762:29 *766:19 0.0226154
22 *762:35 *791:inl_ctrl[0] 0.00098612
23 *762:35 *768:23 0.00689394
24 *762:35 *775:55 0.00113758
25 *762:35 *778:17 0
26 *762:35 *782:18 0.00140579
27 *762:37 *791:inl_ctrl[0] 0.00138873
28 *762:37 *774:17 0.000147915
29 *788:adc_data[5] *762:27 0.0014787
30 *791:trimCurr[5] *791:CurrAbsTrim[0] 5.80856e-05
31 *791:trimCurr[4] *791:CurrAbsTrim[0] 0
32 *653:37 *762:27 0.000276056
33 *665:27 *762:27 0.00111116
34 *721:23 *762:13 0.00257353
35 *721:23 *762:27 0.00158473
36 *749:9 *762:9 0
37 *749:9 *762:13 0
38 *758:23 *762:35 0.000417978
39 *760:21 *762:37 0
40 *761:7 *762:7 0.0001539
41 *761:31 *762:35 0.000139557
42 *761:33 *791:CurrAbsTrim[0] 2.74701e-05
43 *761:33 *762:37 0.00842538
*RES
1 *788:analog_ctrl[77] *762:7 1.42213 
2 *762:7 *762:9 111.525 
3 *762:9 *762:11 0.45 
4 *762:11 *762:13 68.5875 
5 *762:13 *762:27 31.0435 
6 *762:27 *762:29 72.2177 
7 *762:29 *762:35 12.8953 
8 *762:35 *762:37 94.965 
9 *762:37 *791:CurrAbsTrim[0] 1.28625 
*END

*D_NET *763 0.148717
*CONN
*I *791:CurrAbsTrim[1] I *D CF_BGR
*I *788:analog_ctrl[78] O *D afe_wb
*CAP
1 *791:CurrAbsTrim[1] 2.4958e-05
2 *788:analog_ctrl[78] 0.000892287
3 *763:25 0.00321114
4 *763:23 0.0043317
5 *763:17 0.018336
6 *763:15 0.0189676
7 *763:9 0.00815498
8 *763:7 0.00727008
9 *791:CurrAbsTrim[1] *791:CurrAbsTrim[2] 0.000111534
10 *763:7 *764:7 6.41095e-05
11 *763:7 *766:17 3.85492e-05
12 *763:9 *768:9 0
13 *763:9 *775:19 0.000682664
14 *763:15 *766:17 0.000305876
15 *763:15 *775:19 9.2563e-06
16 *763:15 *775:31 0.000229498
17 *763:15 *781:20 0.000454539
18 *763:23 *791:inl_ctrl[0] 0.00122175
19 *763:23 *766:25 0.00714651
20 *763:25 *791:CurrAbsTrim[2] 0.00165468
21 *763:25 *766:27 0.00401996
22 *763:25 *777:19 0.00081006
23 *788:adc_data[10] *763:15 4.70358e-05
24 *788:adc_data[11] *763:15 0.000777791
25 *788:adc_data[4] *763:15 0.00023868
26 *788:adc_data[5] *763:15 0.0015563
27 *788:adc_eof *763:15 8.59615e-05
28 *791:trimCurr[1] *791:CurrAbsTrim[1] 8.72957e-05
29 *791:trimCurr[1] *763:25 0.00216926
30 *19:24 *763:17 0
31 *653:37 *763:15 0.000490083
32 *665:27 *763:15 0.00221386
33 *698:9 *763:9 0.00555481
34 *699:19 *763:15 0.00261634
35 *700:15 *763:9 0
36 *710:19 *763:9 0.000191196
37 *710:19 *763:15 2.70068e-05
38 *721:23 *763:15 0.000645976
39 *743:19 *763:9 0.000269815
40 *743:33 *763:15 1.94009e-05
41 *758:9 *763:9 0.00507277
42 *758:25 *763:25 0
43 *759:17 *763:25 0
44 *760:19 *763:23 0.00722304
45 *760:21 *763:25 0
46 *761:7 *763:7 0
47 *761:9 *763:9 0
48 *761:19 *763:9 0.00217245
49 *762:7 *763:7 0.000139707
50 *762:27 *763:15 3.16829e-05
51 *762:29 *763:17 0.0391486
*RES
1 *788:analog_ctrl[78] *763:7 2.58747 
2 *763:7 *763:9 183.195 
3 *763:9 *763:15 9.8654 
4 *763:15 *763:17 71.6148 
5 *763:17 *763:23 11.7299 
6 *763:23 *763:25 97.515 
7 *763:25 *791:CurrAbsTrim[1] 1.27125 
*END

*D_NET *764 0.134345
*CONN
*I *791:CurrAbsTrim[2] I *D CF_BGR
*I *788:analog_ctrl[79] O *D afe_wb
*CAP
1 *791:CurrAbsTrim[2] 0.00651958
2 *788:analog_ctrl[79] 0.000149594
3 *764:9 0.0310552
4 *764:7 0.0246853
5 *791:CurrAbsTrim[2] *791:CurrAbsTrim[3] 0.00011075
6 *791:CurrAbsTrim[2] *766:27 0.00165238
7 *764:7 *766:17 0.000283705
8 *764:9 *769:9 0
9 *764:9 *770:9 0.000293918
10 *764:9 *772:11 0.00568339
11 *764:9 *774:11 0.000779761
12 *791:CurrAbsTrim[1] *791:CurrAbsTrim[2] 0.000111534
13 *2:30 *791:CurrAbsTrim[2] 0
14 *2:42 *791:CurrAbsTrim[2] 0
15 *18:26 *791:CurrAbsTrim[2] 0
16 *646:9 *791:CurrAbsTrim[2] 0.0004563
17 *648:23 *791:CurrAbsTrim[2] 0.00205821
18 *658:9 *791:CurrAbsTrim[2] 0.000386588
19 *732:11 *764:9 0.00327311
20 *751:11 *764:9 0
21 *756:9 *764:9 0
22 *757:9 *764:9 0
23 *759:9 *764:9 0.00169363
24 *760:9 *764:9 0.0534333
25 *763:7 *764:7 6.41095e-05
26 *763:25 *791:CurrAbsTrim[2] 0.00165468
*RES
1 *788:analog_ctrl[79] *764:7 0.956 
2 *764:7 *764:9 687.585 
3 *764:9 *791:CurrAbsTrim[2] 39.0463 
*END

*D_NET *766 0.136691
*CONN
*I *791:CurrAbsTrim[3] I *D CF_BGR
*I *788:analog_ctrl[80] O *D afe_wb
*CAP
1 *791:CurrAbsTrim[3] 4.13841e-05
2 *788:analog_ctrl[80] 0.0185061
3 *766:27 0.00377717
4 *766:25 0.00645468
5 *766:19 0.0215757
6 *766:17 0.0373629
7 *766:17 *769:9 0.000839431
8 *766:17 *774:11 0.00639904
9 *766:17 *784:16 0.000392696
10 *766:25 *791:inl_ctrl[0] 0.00124455
11 *766:25 *772:21 0
12 *766:27 *791:CurrAbsTrim[4] 0
13 *766:27 *768:25 0
14 *766:27 *775:55 0
15 *766:27 *777:19 0.00103333
16 *788:adc_data[5] *766:17 0.00024444
17 *791:CurrAbsTrim[2] *791:CurrAbsTrim[3] 0.00011075
18 *791:CurrAbsTrim[2] *766:27 0.00165238
19 *26:32 *766:25 0
20 *665:27 *766:17 0.000175853
21 *699:19 *766:17 0.000110855
22 *721:23 *766:17 0.00103638
23 *760:19 *766:25 0.000123408
24 *762:9 *766:17 0.000225067
25 *762:13 *766:17 0.000321988
26 *762:27 *766:17 0.000652557
27 *762:29 *766:19 0.0226154
28 *763:7 *766:17 3.85492e-05
29 *763:15 *766:17 0.000305876
30 *763:23 *766:25 0.00714651
31 *763:25 *766:27 0.00401996
32 *764:7 *766:17 0.000283705
*RES
1 *788:analog_ctrl[80] *766:17 33.4355 
2 *766:17 *766:19 71.7871 
3 *766:19 *766:25 11.963 
4 *766:25 *766:27 98.025 
5 *766:27 *791:CurrAbsTrim[3] 1.21875 
*END

*D_NET *767 0.137454
*CONN
*I *791:CurrAbsTrim[4] I *D CF_BGR
*I *788:analog_ctrl[81] O *D afe_wb
*CAP
1 *791:CurrAbsTrim[4] 0.00130792
2 *788:analog_ctrl[81] 7.40377e-05
3 *767:17 0.00814283
4 *767:11 0.029894
5 *767:9 0.0231332
6 *791:CurrAbsTrim[4] *791:CurrAbsTrim[5] 9.74228e-05
7 *791:CurrAbsTrim[4] *768:25 0.00306553
8 *791:CurrAbsTrim[4] *779:17 0.000437099
9 *767:9 *768:7 1.04486e-05
10 *767:11 *770:9 0
11 *767:11 *771:11 0
12 *767:11 *777:11 0
13 *767:11 *778:11 0
14 *767:11 *782:6 0.00884397
15 *767:11 *782:16 1.79483e-05
16 *767:17 *771:21 0
17 *751:11 *767:11 0.0574285
18 *754:11 *767:11 0.00441407
19 *756:15 *767:17 0
20 *757:9 *767:11 0.000586936
21 *766:27 *791:CurrAbsTrim[4] 0
*RES
1 *788:analog_ctrl[81] *767:9 0.672267 
2 *767:9 *767:11 676.365 
3 *767:11 *767:17 17.9936 
4 *767:17 *791:CurrAbsTrim[4] 36.0488 
*END

*D_NET *768 0.142774
*CONN
*I *791:CurrAbsTrim[5] I *D CF_BGR
*I *788:analog_ctrl[82] O *D afe_wb
*CAP
1 *791:CurrAbsTrim[5] 3.23092e-05
2 *788:analog_ctrl[82] 0.000708029
3 *768:25 0.00320667
4 *768:23 0.00543761
5 *768:17 0.017754
6 *768:15 0.0167538
7 *768:9 0.00944211
8 *768:7 0.0088871
9 *791:CurrAbsTrim[5] *791:mux2sel 6.08145e-05
10 *768:7 *769:7 0.000162111
11 *768:9 *775:19 1.79483e-05
12 *768:15 *774:15 7.9419e-06
13 *768:15 *777:17 0.000536626
14 *768:15 *779:15 6.09894e-05
15 *768:23 *791:inl_ctrl[0] 0.00111737
16 *768:23 *778:17 0
17 *768:23 *782:18 0.000531952
18 *768:25 *775:55 9.33771e-05
19 *768:25 *778:19 0.00342907
20 *768:25 *782:22 0
21 *791:CurrAbsTrim[4] *791:CurrAbsTrim[5] 9.74228e-05
22 *791:CurrAbsTrim[4] *768:25 0.00306553
23 *655:25 *768:15 0.000738998
24 *658:13 *768:17 0.0169975
25 *665:27 *768:9 0.00199355
26 *698:9 *768:9 0
27 *699:19 *768:9 0.000104785
28 *706:11 *768:9 0
29 *732:15 *768:15 0
30 *749:9 *768:9 0
31 *758:9 *768:9 3.8711e-05
32 *758:23 *768:23 0.00945992
33 *761:9 *768:9 0.0132882
34 *761:25 *768:17 0.0216367
35 *761:31 *768:23 0.000208312
36 *762:35 *768:23 0.00689394
37 *763:9 *768:9 0
38 *766:27 *768:25 0
39 *767:9 *768:7 1.04486e-05
*RES
1 *788:analog_ctrl[82] *768:7 2.23787 
2 *768:7 *768:9 199.515 
3 *768:9 *768:15 5.00013 
4 *768:15 *768:17 417.795 
5 *768:17 *768:23 15.6629 
6 *768:23 *768:25 95.475 
7 *768:25 *791:CurrAbsTrim[5] 1.19625 
*END

*D_NET *769 0.151661
*CONN
*I *791:inl_ctrl[0] I *D CF_BGR
*I *788:analog_ctrl[83] O *D afe_wb
*CAP
1 *791:inl_ctrl[0] 0.0102482
2 *788:analog_ctrl[83] 0.000289861
3 *769:25 0.0369458
4 *769:23 0.0288243
5 *769:9 0.00956075
6 *769:7 0.00772391
7 *791:inl_ctrl[0] *791:inl_ctrl[1] 7.28585e-05
8 *791:inl_ctrl[0] *791:inl_ctrl[5] 0.00633939
9 *791:inl_ctrl[0] *772:21 0.000494432
10 *791:inl_ctrl[0] *774:17 0.00107969
11 *791:inl_ctrl[0] *775:55 0.000142272
12 *791:inl_ctrl[0] *777:19 0
13 *769:7 *770:7 4.01111e-05
14 *769:9 *770:9 0
15 *769:23 *775:31 0.000632215
16 *769:23 *781:32 0.00301681
17 *769:23 *784:16 0.000688202
18 *788:adc_data[10] *769:23 0.0024166
19 *791:trimCurr[5] *791:inl_ctrl[0] 0
20 *10:20 *769:25 0.00931744
21 *10:24 *769:25 0.000373339
22 *11:20 *769:25 0.00476511
23 *11:28 *769:25 0.000216174
24 *12:42 *791:inl_ctrl[0] 3.51138e-05
25 *19:24 *769:25 0
26 *646:23 *769:23 0.000430912
27 *647:17 *769:23 0.00013827
28 *653:37 *769:23 0
29 *665:27 *769:23 0.000273102
30 *699:19 *769:23 6.64622e-05
31 *710:19 *769:23 4.11745e-05
32 *721:23 *769:9 0.00252833
33 *721:23 *769:23 0.000149351
34 *732:11 *769:9 0
35 *732:15 *769:23 0
36 *743:33 *769:23 0.000235105
37 *758:23 *791:inl_ctrl[0] 0.00116388
38 *760:19 *791:inl_ctrl[0] 0.00149257
39 *760:21 *791:inl_ctrl[0] 0.000419765
40 *761:31 *791:inl_ctrl[0] 0.00140247
41 *762:9 *769:9 0.00982536
42 *762:13 *769:9 0.00197466
43 *762:27 *769:23 0.00133686
44 *762:35 *791:inl_ctrl[0] 0.00098612
45 *762:37 *791:inl_ctrl[0] 0.00138873
46 *763:23 *791:inl_ctrl[0] 0.00122175
47 *764:9 *769:9 0
48 *766:17 *769:9 0.000839431
49 *766:25 *791:inl_ctrl[0] 0.00124455
50 *768:7 *769:7 0.000162111
51 *768:23 *791:inl_ctrl[0] 0.00111737
*RES
1 *788:analog_ctrl[83] *769:7 1.36387 
2 *769:7 *769:9 191.738 
3 *769:9 *769:23 40.2592 
4 *769:23 *769:25 71.3564 
5 *769:25 *791:inl_ctrl[0] 20.3804 
*END

*D_NET *770 0.166463
*CONN
*I *791:inl_ctrl[1] I *D CF_BGR
*I *788:analog_ctrl[84] O *D afe_wb
*CAP
1 *791:inl_ctrl[1] 3.35787e-05
2 *788:analog_ctrl[84] 0.000134907
3 *770:17 0.00349713
4 *770:15 0.0113804
5 *770:9 0.0179875
6 *770:7 0.0102056
7 *791:inl_ctrl[1] *791:inl_ctrl[2] 6.29076e-05
8 *770:9 *772:11 0.00861666
9 *770:9 *777:11 0
10 *770:9 *779:11 0.000697341
11 *770:15 *778:17 0
12 *770:17 *771:21 0.00255803
13 *770:17 *772:23 0.00280755
14 *791:inl_ctrl[0] *791:inl_ctrl[1] 7.28585e-05
15 *756:9 *770:9 0.0536658
16 *757:9 *770:9 9.95479e-05
17 *759:9 *770:9 0.0542067
18 *760:9 *770:9 0.000102765
19 *761:33 *770:17 0
20 *764:9 *770:9 0.000293918
21 *767:11 *770:9 0
22 *769:7 *770:7 4.01111e-05
23 *769:9 *770:9 0
*RES
1 *788:analog_ctrl[84] *770:7 0.7812 
2 *770:7 *770:9 629.955 
3 *770:9 *770:15 20.2077 
4 *770:15 *770:17 86.805 
5 *770:17 *791:inl_ctrl[1] 1.21875 
*END

*D_NET *771 0.172233
*CONN
*I *791:inl_ctrl[2] I *D CF_BGR
*I *788:analog_ctrl[85] O *D afe_wb
*CAP
1 *791:inl_ctrl[2] 2.50471e-05
2 *788:analog_ctrl[85] 0.00017007
3 *771:21 0.00823395
4 *771:11 0.0197794
5 *771:9 0.0117405
6 *791:inl_ctrl[2] *791:inl_ctrl[3] 6.51543e-05
7 *791:inl_ctrl[2] *772:23 1.1332e-05
8 *771:11 *773:13 0.0586973
9 *771:11 *775:33 0.00849877
10 *771:11 *778:11 0.0558357
11 *771:11 *784:16 0.00400468
12 *771:21 *772:23 0.00255005
13 *791:trimCurr[1] *771:21 0
14 *791:inl_ctrl[1] *791:inl_ctrl[2] 6.29076e-05
15 *751:11 *771:11 0
16 *767:11 *771:11 0
17 *767:17 *771:21 0
18 *770:17 *771:21 0.00255803
*RES
1 *788:analog_ctrl[85] *771:9 0.844533 
2 *771:9 *771:11 687.585 
3 *771:11 *771:21 49.5596 
4 *771:21 *791:inl_ctrl[2] 1.0725 
*END

*D_NET *772 0.20201
*CONN
*I *791:inl_ctrl[3] I *D CF_BGR
*I *788:analog_ctrl[86] O *D afe_wb
*CAP
1 *791:inl_ctrl[3] 4.25947e-05
2 *788:analog_ctrl[86] 0.000109486
3 *772:23 0.00340555
4 *772:21 0.0110045
5 *772:11 0.0318996
6 *772:9 0.0243675
7 *791:inl_ctrl[3] *791:inl_ctrl[4] 7.17133e-05
8 *772:9 *773:11 6.78632e-06
9 *772:9 *774:11 0
10 *772:11 *779:11 0.0184805
11 *772:11 *782:6 0.0566629
12 *772:23 *773:21 0.00291951
13 *772:23 *775:57 0
14 *791:inl_ctrl[0] *772:21 0.000494432
15 *791:inl_ctrl[2] *791:inl_ctrl[3] 6.51543e-05
16 *791:inl_ctrl[2] *772:23 1.1332e-05
17 *26:32 *772:21 0.000344354
18 *756:9 *772:11 0.00990961
19 *757:9 *772:11 0.00885454
20 *759:9 *772:11 0.00801866
21 *760:9 *772:11 0.00568339
22 *760:19 *772:21 0
23 *761:33 *772:23 0
24 *764:9 *772:11 0.00568339
25 *766:25 *772:21 0
26 *770:9 *772:11 0.00861666
27 *770:17 *772:23 0.00280755
28 *771:21 *772:23 0.00255005
*RES
1 *788:analog_ctrl[86] *772:9 0.759667 
2 *772:9 *772:11 104.604 
3 *772:11 *772:21 20.4269 
4 *772:21 *772:23 103.125 
5 *772:23 *791:inl_ctrl[3] 1.3725 
*END

*D_NET *773 0.157023
*CONN
*I *791:inl_ctrl[4] I *D CF_BGR
*I *788:analog_ctrl[87] O *D afe_wb
*CAP
1 *791:inl_ctrl[4] 3.23681e-05
2 *788:analog_ctrl[87] 0.000165599
3 *773:21 0.00147409
4 *773:19 0.00786495
5 *773:13 0.029368
6 *773:11 0.0231104
7 *791:inl_ctrl[4] *791:inl_ctrl[6] 1.62217e-05
8 *791:inl_ctrl[4] *791:inl_ctrl[5] 3.80125e-05
9 *773:13 *775:33 0.0184789
10 *773:13 *778:11 0.000203817
11 *773:13 *781:20 0
12 *773:13 *784:16 0.00800936
13 *773:21 *791:inl_ctrl[6] 4.36036e-06
14 *773:21 *775:57 0.00224138
15 *791:inl_ctrl[3] *791:inl_ctrl[4] 7.17133e-05
16 *11:18 *773:19 0.00432044
17 *759:15 *773:19 0
18 *771:11 *773:13 0.0586973
19 *772:9 *773:11 6.78632e-06
20 *772:23 *773:21 0.00291951
*RES
1 *788:analog_ctrl[87] *773:11 1.29453 
2 *773:11 *773:13 661.575 
3 *773:13 *773:19 19.7999 
4 *773:19 *773:21 59.775 
5 *773:21 *791:inl_ctrl[4] 1.21125 
*END

*D_NET *774 0.157682
*CONN
*I *791:inl_ctrl[5] I *D CF_BGR
*I *788:analog_ctrl[88] O *D afe_wb
*CAP
1 *791:inl_ctrl[5] 0.0062904
2 *788:analog_ctrl[88] 0.00942009
3 *774:17 0.0366137
4 *774:15 0.0328014
5 *774:11 0.0118982
6 *791:inl_ctrl[5] *791:inl_ctrl[6] 3.92494e-05
7 *774:11 *775:19 7.02449e-05
8 *774:11 *779:11 0.0187937
9 *774:15 *777:17 4.70134e-05
10 *774:15 *779:15 0.0115109
11 *791:inl_ctrl[0] *791:inl_ctrl[5] 0.00633939
12 *791:inl_ctrl[0] *774:17 0.00107969
13 *791:inl_ctrl[4] *791:inl_ctrl[5] 3.80125e-05
14 *12:42 *791:inl_ctrl[5] 0
15 *655:25 *774:15 0
16 *732:11 *774:11 0.000476653
17 *732:15 *774:15 0.0126142
18 *760:9 *774:11 0.000697341
19 *761:33 *791:inl_ctrl[5] 0.00146884
20 *761:33 *774:17 0.000147915
21 *762:37 *774:17 0.000147915
22 *764:9 *774:11 0.000779761
23 *766:17 *774:11 0.00639904
24 *768:15 *774:15 7.9419e-06
25 *772:9 *774:11 0
*RES
1 *788:analog_ctrl[88] *774:11 36.7213 
2 *774:11 *774:15 19.4164 
3 *774:15 *774:17 72.9828 
4 *774:17 *791:inl_ctrl[5] 16.5814 
*END

*D_NET *775 0.161294
*CONN
*I *791:inl_ctrl[6] I *D CF_BGR
*I *788:analog_ctrl[89] O *D afe_wb
*CAP
1 *791:inl_ctrl[6] 5.12153e-05
2 *788:analog_ctrl[89] 0.0169153
3 *775:57 0.00434668
4 *775:55 0.00532705
5 *775:45 0.00655223
6 *775:43 0.0056952
7 *775:33 0.0289504
8 *775:31 0.0295136
9 *775:19 0.0176531
10 *775:31 *777:11 0.000204726
11 *775:33 *782:6 0.00504796
12 *775:43 *778:17 0
13 *775:45 *782:18 0
14 *791:inl_ctrl[0] *775:55 0.000142272
15 *791:inl_ctrl[5] *791:inl_ctrl[6] 3.92494e-05
16 *791:inl_ctrl[4] *791:inl_ctrl[6] 1.62217e-05
17 *653:37 *775:31 0
18 *665:27 *775:19 4.17092e-05
19 *686:15 *775:19 0.000661778
20 *692:11 *775:19 0.000213565
21 *698:9 *775:19 0.000491375
22 *699:19 *775:19 0.000486043
23 *699:19 *775:31 0.000225009
24 *710:19 *775:19 0.000520744
25 *721:23 *775:31 9.22073e-05
26 *743:19 *775:19 0.00049991
27 *753:9 *775:19 0
28 *754:11 *775:31 5.76217e-05
29 *758:9 *775:19 0.000632419
30 *760:19 *775:43 0.000304757
31 *760:19 *775:45 0.00320551
32 *761:19 *775:19 0.000484576
33 *761:31 *775:45 0.000792781
34 *761:31 *775:55 8.75811e-06
35 *762:27 *775:31 2.39856e-05
36 *762:35 *775:55 0.00113758
37 *763:9 *775:19 0.000682664
38 *763:15 *775:19 9.2563e-06
39 *763:15 *775:31 0.000229498
40 *766:27 *775:55 0
41 *768:9 *775:19 1.79483e-05
42 *768:25 *775:55 9.33771e-05
43 *769:23 *775:31 0.000632215
44 *771:11 *775:33 0.00849877
45 *772:23 *775:57 0
46 *773:13 *775:33 0.0184789
47 *773:21 *791:inl_ctrl[6] 4.36036e-06
48 *773:21 *775:57 0.00224138
49 *774:11 *775:19 7.02449e-05
*RES
1 *788:analog_ctrl[89] *775:19 40.2632 
2 *775:19 *775:31 16.686 
3 *775:31 *775:33 71.6148 
4 *775:33 *775:43 3.7075 
5 *775:43 *775:45 94.29 
6 *775:45 *775:55 8.07097 
7 *775:55 *775:57 94.455 
8 *775:57 *791:inl_ctrl[6] 1.33125 
*END

*D_NET *776 0.140237
*CONN
*I *790:pd I *D CF_ADC_SAR12_sar_refs
*I *789:pd I *D CF_ADC_SAR12
*I *788:analog_ctrl[8] O *D afe_wb
*CAP
1 *790:pd 7.44064e-05
2 *789:pd 0.000209529
3 *788:analog_ctrl[8] 0.00982143
4 *776:37 0.0118922
5 *776:21 0.0200905
6 *776:19 0.0218797
7 *776:11 0.0263363
8 *776:7 0.0223412
9 *789:pd *789:pd_ana 3.72607e-05
10 *790:pd *790:pd_ana 0.000106616
11 *776:7 *787:7 0.00192874
12 *776:19 *787:21 0.000103351
13 *776:19 *787:35 0
14 *776:21 *787:35 0
15 *776:37 *787:21 0.0137947
16 *789:trimunit *789:pd 0.000138724
17 *789:vssa *776:11 0
18 *789:vssa *776:19 0.00135594
19 *789:enable_hv *789:pd 0.000134831
20 *790:hiz *790:pd 0.000117056
21 *790:hiz *776:37 0.00982896
22 *790:sw_start *776:37 0
23 *19:30 *776:19 4.56317e-05
24 *20:24 *776:21 0
25 *20:38 *776:21 0
26 *671:19 *776:11 0
27 *676:5 *776:7 0
28 *706:13 *776:7 0
*RES
1 *788:analog_ctrl[8] *776:7 26.739 
2 *776:7 *776:11 31.8905 
3 *776:11 *776:19 7.5984 
4 *776:19 *776:21 53.8131 
5 *776:21 *789:pd 2.047 
6 *776:11 *776:37 49.5694 
7 *776:37 *790:pd 2.3775 
*END

*D_NET *777 0.149212
*CONN
*I *791:mux1sel[0] I *D CF_BGR
*I *788:analog_ctrl[90] O *D afe_wb
*CAP
1 *791:mux1sel[0] 0.000180151
2 *788:analog_ctrl[90] 0.000161274
3 *777:19 0.0220564
4 *777:17 0.0260995
5 *777:11 0.0109681
6 *777:9 0.00690615
7 *791:mux1sel[0] *791:mux2sel 0.00023401
8 *791:mux1sel[0] *791:mux1sel[1] 5.70159e-05
9 *777:11 *778:11 0.0189701
10 *777:11 *781:20 0.000678896
11 *777:11 *784:16 0.00022426
12 *777:17 *779:15 0.0112386
13 *777:19 *779:17 0.0473695
14 *791:inl_ctrl[0] *777:19 0
15 *655:25 *777:17 0
16 *754:11 *777:11 0.00143669
17 *763:25 *777:19 0.00081006
18 *766:27 *777:19 0.00103333
19 *767:11 *777:11 0
20 *768:15 *777:17 0.000536626
21 *770:9 *777:11 0
22 *774:15 *777:17 4.70134e-05
23 *775:31 *777:11 0.000204726
*RES
1 *788:analog_ctrl[90] *777:9 0.844533 
2 *777:9 *777:11 212.775 
3 *777:11 *777:17 17.9645 
4 *777:17 *777:19 87.0327 
5 *777:19 *791:mux1sel[0] 2.00583 
*END

*D_NET *778 0.14845
*CONN
*I *791:mux1sel[1] I *D CF_BGR
*I *788:analog_ctrl[91] O *D afe_wb
*CAP
1 *791:mux1sel[1] 2.96092e-05
2 *788:analog_ctrl[91] 8.64438e-05
3 *778:19 0.00211318
4 *778:17 0.00857258
5 *778:11 0.0244935
6 *778:9 0.0180909
7 *791:mux1sel[1] *791:mux2sel 2.21392e-05
8 *791:mux1sel[1] *791:dft_sel 9.99072e-05
9 *791:mux1sel[1] *780:20 1.14529e-05
10 *778:11 *782:6 0.00523621
11 *778:11 *782:16 0
12 *778:11 *784:16 0.00484706
13 *778:19 *791:mux2sel 6.68872e-06
14 *778:19 *780:20 0.00427523
15 *778:19 *782:22 0.00206959
16 *791:mux1sel[0] *791:mux1sel[1] 5.70159e-05
17 *754:11 *778:11 0
18 *761:31 *778:17 0
19 *762:35 *778:17 0
20 *767:11 *778:11 0
21 *768:23 *778:17 0
22 *768:25 *778:19 0.00342907
23 *770:15 *778:17 0
24 *771:11 *778:11 0.0558357
25 *773:13 *778:11 0.000203817
26 *775:43 *778:17 0
27 *777:11 *778:11 0.0189701
*RES
1 *788:analog_ctrl[91] *778:9 0.672267 
2 *778:9 *778:11 639.645 
3 *778:11 *778:17 17.4692 
4 *778:17 *778:19 91.905 
5 *778:19 *791:mux1sel[1] 1.2675 
*END

*D_NET *779 0.176299
*CONN
*I *791:mux2sel I *D CF_BGR
*I *788:analog_ctrl[92] O *D afe_wb
*CAP
1 *791:mux2sel 0.000119876
2 *788:analog_ctrl[92] 0.00782105
3 *779:17 0.02292
4 *779:15 0.0249484
5 *779:11 0.00996936
6 *779:11 *782:6 0.000353573
7 *791:CurrAbsTrim[5] *791:mux2sel 6.08145e-05
8 *791:CurrAbsTrim[4] *779:17 0.000437099
9 *791:mux1sel[0] *791:mux2sel 0.00023401
10 *791:mux1sel[1] *791:mux2sel 2.21392e-05
11 *12:42 *791:mux2sel 3.14229e-05
12 *686:13 *779:11 0.000443028
13 *759:9 *779:11 0.000779761
14 *768:15 *779:15 6.09894e-05
15 *770:9 *779:11 0.000697341
16 *772:11 *779:11 0.0184805
17 *774:11 *779:11 0.0187937
18 *774:15 *779:15 0.0115109
19 *777:17 *779:15 0.0112386
20 *777:19 *779:17 0.0473695
21 *778:19 *791:mux2sel 6.68872e-06
*RES
1 *788:analog_ctrl[92] *779:11 38.069 
2 *779:11 *779:15 17.7849 
3 *779:15 *779:17 87.0327 
4 *779:17 *791:mux2sel 2.35243 
*END

*D_NET *780 0.113066
*CONN
*I *791:dft_sel I *D CF_BGR
*I *788:analog_ctrl[93] O *D afe_wb
*CAP
1 *791:dft_sel 1.36707e-05
2 *788:analog_ctrl[93] 0.000625044
3 *780:20 0.000904855
4 *780:16 0.00579603
5 *780:10 0.0488024
6 *780:8 0.0445226
7 *791:dft_sel *791:pd_ibg 0.000108078
8 *780:8 *784:16 0.000303478
9 *780:10 *784:16 0
10 *780:10 *784:18 0
11 *780:20 *782:22 0.00427412
12 *791:mux1sel[1] *791:dft_sel 9.99072e-05
13 *791:mux1sel[1] *780:20 1.14529e-05
14 *10:18 *780:16 0.00332904
15 *658:13 *780:10 0
16 *778:19 *780:20 0.00427523
*RES
1 *788:analog_ctrl[93] *780:8 2.1416 
2 *780:8 *780:10 115.284 
3 *780:10 *780:16 16.2747 
4 *780:16 *780:20 49.7025 
5 *780:20 *791:dft_sel 1.0725 
*END

*D_NET *781 0.130366
*CONN
*I *791:pd I *D CF_BGR
*I *788:analog_ctrl[94] O *D afe_wb
*CAP
1 *791:pd 0.000514898
2 *788:analog_ctrl[94] 0.00538591
3 *781:34 0.0281857
4 *781:32 0.030621
5 *781:20 0.00833606
6 *791:pd *791:pd_ibg 8.62335e-05
7 *791:pd *782:22 1.03195e-05
8 *781:20 *782:6 0.0123239
9 *781:20 *784:16 0.0191919
10 *788:adc_data[10] *781:32 0.000596201
11 *788:adc_data[4] *781:32 0.0014785
12 *8:14 *781:34 0.0151505
13 *12:42 *791:pd 0.000189259
14 *26:32 *781:34 0
15 *646:23 *781:32 0.000157996
16 *647:17 *781:32 8.09959e-05
17 *652:21 *781:32 0.000321094
18 *653:37 *781:32 0.000651624
19 *665:27 *781:20 0.000454539
20 *699:19 *781:32 0.000315583
21 *732:15 *781:32 0.00168238
22 *761:23 *781:32 0.000481268
23 *763:15 *781:20 0.000454539
24 *769:23 *781:32 0.00301681
25 *773:13 *781:20 0
26 *777:11 *781:20 0.000678896
*RES
1 *788:analog_ctrl[94] *781:20 42.5494 
2 *781:20 *781:32 33.5201 
3 *781:32 *781:34 87.6356 
4 *781:34 *791:pd 3.488 
*END

*D_NET *782 0.174341
*CONN
*I *791:pd_ibg I *D CF_BGR
*I *788:analog_ctrl[95] O *D afe_wb
*CAP
1 *791:pd_ibg 2.19738e-05
2 *788:analog_ctrl[95] 0
3 *782:22 0.00378976
4 *782:20 0.00376778
5 *782:18 0.00575427
6 *782:16 0.00580427
7 *782:6 0.0236141
8 *782:4 0.0235641
9 *782:6 *784:16 0.000117095
10 *791:dft_sel *791:pd_ibg 0.000108078
11 *791:pd *791:pd_ibg 8.62335e-05
12 *791:pd *782:22 1.03195e-05
13 *686:13 *782:6 0.00103367
14 *751:11 *782:6 0.00990107
15 *762:35 *782:18 0.00140579
16 *767:11 *782:6 0.00884397
17 *767:11 *782:16 1.79483e-05
18 *768:23 *782:18 0.000531952
19 *768:25 *782:22 0
20 *772:11 *782:6 0.0566629
21 *775:33 *782:6 0.00504796
22 *775:45 *782:18 0
23 *778:11 *782:6 0.00523621
24 *778:11 *782:16 0
25 *778:19 *782:22 0.00206959
26 *779:11 *782:6 0.000353573
27 *780:20 *782:22 0.00427412
28 *781:20 *782:6 0.0123239
*RES
1 *788:analog_ctrl[95] *782:4 0.5 
2 *782:4 *782:6 108.911 
3 *782:6 *782:16 3.29963 
4 *782:16 *782:18 98.085 
5 *782:18 *782:20 2 
6 *782:20 *782:22 94.3275 
7 *782:22 *791:pd_ibg 1.215 
*END

*D_NET *783 0.108535
*CONN
*I *791:finetune I *D CF_BGR
*I *788:analog_ctrl[96] O *D afe_wb
*CAP
1 *791:finetune 0.000113207
2 *788:analog_ctrl[96] 0.00544633
3 *783:17 0.035108
4 *783:15 0.0404411
5 *6:16 *791:finetune 3.39619e-05
6 *670:9 *783:17 0.0263845
7 *677:10 *783:15 9.60472e-05
8 *738:11 *783:17 0.000911597
*RES
1 *788:analog_ctrl[96] *783:15 22.2472 
2 *783:15 *783:17 123.898 
3 *783:17 *791:finetune 2.2131 
*END

*D_NET *784 0.174118
*CONN
*I *791:en_startb I *D CF_BGR
*I *788:analog_ctrl[97] O *D afe_wb
*CAP
1 *791:en_startb 0.00412952
2 *788:analog_ctrl[97] 0.0100815
3 *784:18 0.0413879
4 *784:16 0.0473399
5 *1:14 *791:en_startb 0.00316003
6 *658:13 *784:18 0.00598094
7 *686:13 *784:16 0.000167035
8 *721:23 *784:16 0.00149769
9 *758:17 *784:18 0.0225947
10 *766:17 *784:16 0.000392696
11 *769:23 *784:16 0.000688202
12 *771:11 *784:16 0.00400468
13 *773:13 *784:16 0.00800936
14 *777:11 *784:16 0.00022426
15 *778:11 *784:16 0.00484706
16 *780:8 *784:16 0.000303478
17 *780:10 *784:16 0
18 *780:10 *784:18 0
19 *781:20 *784:16 0.0191919
20 *782:6 *784:16 0.000117095
*RES
1 *788:analog_ctrl[97] *784:16 41.1061 
2 *784:16 *784:18 128.118 
3 *784:18 *791:en_startb 16.8217 
*END

*D_NET *787 0.13982
*CONN
*I *789:pd_ana I *D CF_ADC_SAR12
*I *790:pd_ana I *D CF_ADC_SAR12_sar_refs
*I *788:analog_ctrl[9] O *D afe_wb
*CAP
1 *789:pd_ana 0.000158232
2 *790:pd_ana 8.94409e-05
3 *788:analog_ctrl[9] 0.00260091
4 *787:35 0.0209295
5 *787:21 0.0143957
6 *787:19 0.0143063
7 *787:17 0.0288872
8 *787:9 0.0156604
9 *787:7 0.0101454
10 *789:trimunit *789:pd_ana 4.53875e-05
11 *789:vssa *787:17 0
12 *789:vssa *787:35 0
13 *789:pd *789:pd_ana 3.72607e-05
14 *789:dft_inc[0] *789:pd_ana 0.000112736
15 *789:dft_outc[2] *789:pd_ana 0.000147399
16 *789:dft_outc[2] *787:35 0.00311597
17 *789:dft_outc[1] *789:pd_ana 4.32417e-05
18 *789:dft_outc[0] *789:pd_ana 6.53017e-05
19 *789:enable_hv *789:pd_ana 6.63391e-05
20 *790:pd *790:pd_ana 0.000106616
21 *790:sw_start *790:pd_ana 0
22 *790:sw_start *787:21 0.000150312
23 *676:5 *787:7 0.00193165
24 *694:19 *787:17 0.0049757
25 *694:19 *787:35 0.00602182
26 *705:13 *787:17 0
27 *776:7 *787:7 0.00192874
28 *776:19 *787:21 0.000103351
29 *776:19 *787:35 0
30 *776:21 *787:35 0
31 *776:37 *787:21 0.0137947
*RES
1 *788:analog_ctrl[9] *787:7 10.5117 
2 *787:7 *787:9 135.765 
3 *787:9 *787:17 24.9489 
4 *787:17 *787:19 0.5 
5 *787:19 *787:21 50.4095 
6 *787:21 *790:pd_ana 2.7425 
7 *787:17 *787:35 60.1591 
8 *787:35 *789:pd_ana 2.51267 
*END
