*SPEF "ieee 1481-1999"
*DESIGN "user_project_wrapper"
*DATE "18:03:45 Sunday September 06, 2026"
*VENDOR "The OpenROAD Project"
*PROGRAM "OpenROAD"
*VERSION "dcf36133a369abc8f3c5e5738cd4d82e4903c0e0"
*DESIGN_FLOW "NAME_SCOPE LOCAL" "PIN_CAP NONE"
*DIVIDER /
*DELIMITER :
*BUS_DELIMITER []
*T_UNIT 1 NS
*C_UNIT 1 PF
*R_UNIT 1 OHM
*L_UNIT 1 HENRY

*NAME_MAP
*1 analog_io[0]
*2 analog_io[10]
*3 analog_io[11]
*4 analog_io[12]
*5 analog_io[13]
*6 analog_io[14]
*7 analog_io[15]
*8 analog_io[16]
*9 analog_io[17]
*10 analog_io[18]
*11 analog_io[19]
*12 analog_io[1]
*13 analog_io[20]
*14 analog_io[21]
*15 analog_io[22]
*16 analog_io[23]
*17 analog_io[24]
*18 analog_io[25]
*19 analog_io[26]
*20 analog_io[27]
*21 analog_io[28]
*22 analog_io[2]
*23 analog_io[3]
*24 analog_io[4]
*25 analog_io[5]
*26 analog_io[6]
*27 analog_io[7]
*28 analog_io[8]
*29 analog_io[9]
*30 io_in[0]
*31 io_in[10]
*32 io_in[11]
*33 io_in[12]
*34 io_in[13]
*35 io_in[14]
*36 io_in[15]
*37 io_in[16]
*38 io_in[17]
*39 io_in[18]
*40 io_in[19]
*41 io_in[1]
*42 io_in[20]
*43 io_in[21]
*44 io_in[22]
*45 io_in[23]
*46 io_in[24]
*47 io_in[25]
*48 io_in[26]
*49 io_in[27]
*50 io_in[28]
*51 io_in[29]
*52 io_in[2]
*53 io_in[30]
*54 io_in[31]
*55 io_in[32]
*56 io_in[33]
*57 io_in[34]
*58 io_in[35]
*59 io_in[36]
*60 io_in[37]
*61 io_in[3]
*62 io_in[4]
*63 io_in[5]
*64 io_in[6]
*65 io_in[7]
*66 io_in[8]
*67 io_in[9]
*68 io_oeb[0]
*69 io_oeb[10]
*70 io_oeb[11]
*71 io_oeb[12]
*72 io_oeb[13]
*73 io_oeb[14]
*74 io_oeb[15]
*75 io_oeb[16]
*76 io_oeb[17]
*77 io_oeb[18]
*78 io_oeb[19]
*79 io_oeb[1]
*80 io_oeb[20]
*81 io_oeb[21]
*82 io_oeb[22]
*83 io_oeb[23]
*84 io_oeb[24]
*85 io_oeb[25]
*86 io_oeb[26]
*87 io_oeb[27]
*88 io_oeb[28]
*89 io_oeb[29]
*90 io_oeb[2]
*91 io_oeb[30]
*92 io_oeb[31]
*93 io_oeb[32]
*94 io_oeb[33]
*95 io_oeb[34]
*96 io_oeb[35]
*97 io_oeb[36]
*98 io_oeb[37]
*99 io_oeb[3]
*100 io_oeb[4]
*101 io_oeb[5]
*102 io_oeb[6]
*103 io_oeb[7]
*104 io_oeb[8]
*105 io_oeb[9]
*106 io_out[0]
*107 io_out[10]
*108 io_out[11]
*109 io_out[12]
*110 io_out[13]
*111 io_out[14]
*112 io_out[15]
*113 io_out[16]
*114 io_out[17]
*115 io_out[18]
*116 io_out[19]
*117 io_out[1]
*118 io_out[20]
*119 io_out[21]
*120 io_out[22]
*121 io_out[23]
*122 io_out[24]
*123 io_out[25]
*124 io_out[26]
*125 io_out[27]
*126 io_out[28]
*127 io_out[29]
*128 io_out[2]
*129 io_out[30]
*130 io_out[31]
*131 io_out[32]
*132 io_out[33]
*133 io_out[34]
*134 io_out[35]
*135 io_out[36]
*136 io_out[37]
*137 io_out[3]
*138 io_out[4]
*139 io_out[5]
*140 io_out[6]
*141 io_out[7]
*142 io_out[8]
*143 io_out[9]
*144 la_data_in[0]
*145 la_data_in[100]
*146 la_data_in[101]
*147 la_data_in[102]
*148 la_data_in[103]
*149 la_data_in[104]
*150 la_data_in[105]
*151 la_data_in[106]
*152 la_data_in[107]
*153 la_data_in[108]
*154 la_data_in[109]
*155 la_data_in[10]
*156 la_data_in[110]
*157 la_data_in[111]
*158 la_data_in[112]
*159 la_data_in[113]
*160 la_data_in[114]
*161 la_data_in[115]
*162 la_data_in[116]
*163 la_data_in[117]
*164 la_data_in[118]
*165 la_data_in[119]
*166 la_data_in[11]
*167 la_data_in[120]
*168 la_data_in[121]
*169 la_data_in[122]
*170 la_data_in[123]
*171 la_data_in[124]
*172 la_data_in[125]
*173 la_data_in[126]
*174 la_data_in[127]
*175 la_data_in[12]
*176 la_data_in[13]
*177 la_data_in[14]
*178 la_data_in[15]
*179 la_data_in[16]
*180 la_data_in[17]
*181 la_data_in[18]
*182 la_data_in[19]
*183 la_data_in[1]
*184 la_data_in[20]
*185 la_data_in[21]
*186 la_data_in[22]
*187 la_data_in[23]
*188 la_data_in[24]
*189 la_data_in[25]
*190 la_data_in[26]
*191 la_data_in[27]
*192 la_data_in[28]
*193 la_data_in[29]
*194 la_data_in[2]
*195 la_data_in[30]
*196 la_data_in[31]
*197 la_data_in[32]
*198 la_data_in[33]
*199 la_data_in[34]
*200 la_data_in[35]
*201 la_data_in[36]
*202 la_data_in[37]
*203 la_data_in[38]
*204 la_data_in[39]
*205 la_data_in[3]
*206 la_data_in[40]
*207 la_data_in[41]
*208 la_data_in[42]
*209 la_data_in[43]
*210 la_data_in[44]
*211 la_data_in[45]
*212 la_data_in[46]
*213 la_data_in[47]
*214 la_data_in[48]
*215 la_data_in[49]
*216 la_data_in[4]
*217 la_data_in[50]
*218 la_data_in[51]
*219 la_data_in[52]
*220 la_data_in[53]
*221 la_data_in[54]
*222 la_data_in[55]
*223 la_data_in[56]
*224 la_data_in[57]
*225 la_data_in[58]
*226 la_data_in[59]
*227 la_data_in[5]
*228 la_data_in[60]
*229 la_data_in[61]
*230 la_data_in[62]
*231 la_data_in[63]
*232 la_data_in[64]
*233 la_data_in[65]
*234 la_data_in[66]
*235 la_data_in[67]
*236 la_data_in[68]
*237 la_data_in[69]
*238 la_data_in[6]
*239 la_data_in[70]
*240 la_data_in[71]
*241 la_data_in[72]
*242 la_data_in[73]
*243 la_data_in[74]
*244 la_data_in[75]
*245 la_data_in[76]
*246 la_data_in[77]
*247 la_data_in[78]
*248 la_data_in[79]
*249 la_data_in[7]
*250 la_data_in[80]
*251 la_data_in[81]
*252 la_data_in[82]
*253 la_data_in[83]
*254 la_data_in[84]
*255 la_data_in[85]
*256 la_data_in[86]
*257 la_data_in[87]
*258 la_data_in[88]
*259 la_data_in[89]
*260 la_data_in[8]
*261 la_data_in[90]
*262 la_data_in[91]
*263 la_data_in[92]
*264 la_data_in[93]
*265 la_data_in[94]
*266 la_data_in[95]
*267 la_data_in[96]
*268 la_data_in[97]
*269 la_data_in[98]
*270 la_data_in[99]
*271 la_data_in[9]
*272 la_data_out[0]
*273 la_data_out[100]
*274 la_data_out[101]
*275 la_data_out[102]
*276 la_data_out[103]
*277 la_data_out[104]
*278 la_data_out[105]
*279 la_data_out[106]
*280 la_data_out[107]
*281 la_data_out[108]
*282 la_data_out[109]
*283 la_data_out[10]
*284 la_data_out[110]
*285 la_data_out[111]
*286 la_data_out[112]
*287 la_data_out[113]
*288 la_data_out[114]
*289 la_data_out[115]
*290 la_data_out[116]
*291 la_data_out[117]
*292 la_data_out[118]
*293 la_data_out[119]
*294 la_data_out[11]
*295 la_data_out[120]
*296 la_data_out[121]
*297 la_data_out[122]
*298 la_data_out[123]
*299 la_data_out[124]
*300 la_data_out[125]
*301 la_data_out[126]
*302 la_data_out[127]
*303 la_data_out[12]
*304 la_data_out[13]
*305 la_data_out[14]
*306 la_data_out[15]
*307 la_data_out[16]
*308 la_data_out[17]
*309 la_data_out[18]
*310 la_data_out[19]
*311 la_data_out[1]
*312 la_data_out[20]
*313 la_data_out[21]
*314 la_data_out[22]
*315 la_data_out[23]
*316 la_data_out[24]
*317 la_data_out[25]
*318 la_data_out[26]
*319 la_data_out[27]
*320 la_data_out[28]
*321 la_data_out[29]
*322 la_data_out[2]
*323 la_data_out[30]
*324 la_data_out[31]
*325 la_data_out[32]
*326 la_data_out[33]
*327 la_data_out[34]
*328 la_data_out[35]
*329 la_data_out[36]
*330 la_data_out[37]
*331 la_data_out[38]
*332 la_data_out[39]
*333 la_data_out[3]
*334 la_data_out[40]
*335 la_data_out[41]
*336 la_data_out[42]
*337 la_data_out[43]
*338 la_data_out[44]
*339 la_data_out[45]
*340 la_data_out[46]
*341 la_data_out[47]
*342 la_data_out[48]
*343 la_data_out[49]
*344 la_data_out[4]
*345 la_data_out[50]
*346 la_data_out[51]
*347 la_data_out[52]
*348 la_data_out[53]
*349 la_data_out[54]
*350 la_data_out[55]
*351 la_data_out[56]
*352 la_data_out[57]
*353 la_data_out[58]
*354 la_data_out[59]
*355 la_data_out[5]
*356 la_data_out[60]
*357 la_data_out[61]
*358 la_data_out[62]
*359 la_data_out[63]
*360 la_data_out[64]
*361 la_data_out[65]
*362 la_data_out[66]
*363 la_data_out[67]
*364 la_data_out[68]
*365 la_data_out[69]
*366 la_data_out[6]
*367 la_data_out[70]
*368 la_data_out[71]
*369 la_data_out[72]
*370 la_data_out[73]
*371 la_data_out[74]
*372 la_data_out[75]
*373 la_data_out[76]
*374 la_data_out[77]
*375 la_data_out[78]
*376 la_data_out[79]
*377 la_data_out[7]
*378 la_data_out[80]
*379 la_data_out[81]
*380 la_data_out[82]
*381 la_data_out[83]
*382 la_data_out[84]
*383 la_data_out[85]
*384 la_data_out[86]
*385 la_data_out[87]
*386 la_data_out[88]
*387 la_data_out[89]
*388 la_data_out[8]
*389 la_data_out[90]
*390 la_data_out[91]
*391 la_data_out[92]
*392 la_data_out[93]
*393 la_data_out[94]
*394 la_data_out[95]
*395 la_data_out[96]
*396 la_data_out[97]
*397 la_data_out[98]
*398 la_data_out[99]
*399 la_data_out[9]
*400 la_oenb[0]
*401 la_oenb[100]
*402 la_oenb[101]
*403 la_oenb[102]
*404 la_oenb[103]
*405 la_oenb[104]
*406 la_oenb[105]
*407 la_oenb[106]
*408 la_oenb[107]
*409 la_oenb[108]
*410 la_oenb[109]
*411 la_oenb[10]
*412 la_oenb[110]
*413 la_oenb[111]
*414 la_oenb[112]
*415 la_oenb[113]
*416 la_oenb[114]
*417 la_oenb[115]
*418 la_oenb[116]
*419 la_oenb[117]
*420 la_oenb[118]
*421 la_oenb[119]
*422 la_oenb[11]
*423 la_oenb[120]
*424 la_oenb[121]
*425 la_oenb[122]
*426 la_oenb[123]
*427 la_oenb[124]
*428 la_oenb[125]
*429 la_oenb[126]
*430 la_oenb[127]
*431 la_oenb[12]
*432 la_oenb[13]
*433 la_oenb[14]
*434 la_oenb[15]
*435 la_oenb[16]
*436 la_oenb[17]
*437 la_oenb[18]
*438 la_oenb[19]
*439 la_oenb[1]
*440 la_oenb[20]
*441 la_oenb[21]
*442 la_oenb[22]
*443 la_oenb[23]
*444 la_oenb[24]
*445 la_oenb[25]
*446 la_oenb[26]
*447 la_oenb[27]
*448 la_oenb[28]
*449 la_oenb[29]
*450 la_oenb[2]
*451 la_oenb[30]
*452 la_oenb[31]
*453 la_oenb[32]
*454 la_oenb[33]
*455 la_oenb[34]
*456 la_oenb[35]
*457 la_oenb[36]
*458 la_oenb[37]
*459 la_oenb[38]
*460 la_oenb[39]
*461 la_oenb[3]
*462 la_oenb[40]
*463 la_oenb[41]
*464 la_oenb[42]
*465 la_oenb[43]
*466 la_oenb[44]
*467 la_oenb[45]
*468 la_oenb[46]
*469 la_oenb[47]
*470 la_oenb[48]
*471 la_oenb[49]
*472 la_oenb[4]
*473 la_oenb[50]
*474 la_oenb[51]
*475 la_oenb[52]
*476 la_oenb[53]
*477 la_oenb[54]
*478 la_oenb[55]
*479 la_oenb[56]
*480 la_oenb[57]
*481 la_oenb[58]
*482 la_oenb[59]
*483 la_oenb[5]
*484 la_oenb[60]
*485 la_oenb[61]
*486 la_oenb[62]
*487 la_oenb[63]
*488 la_oenb[64]
*489 la_oenb[65]
*490 la_oenb[66]
*491 la_oenb[67]
*492 la_oenb[68]
*493 la_oenb[69]
*494 la_oenb[6]
*495 la_oenb[70]
*496 la_oenb[71]
*497 la_oenb[72]
*498 la_oenb[73]
*499 la_oenb[74]
*500 la_oenb[75]
*501 la_oenb[76]
*502 la_oenb[77]
*503 la_oenb[78]
*504 la_oenb[79]
*505 la_oenb[7]
*506 la_oenb[80]
*507 la_oenb[81]
*508 la_oenb[82]
*509 la_oenb[83]
*510 la_oenb[84]
*511 la_oenb[85]
*512 la_oenb[86]
*513 la_oenb[87]
*514 la_oenb[88]
*515 la_oenb[89]
*516 la_oenb[8]
*517 la_oenb[90]
*518 la_oenb[91]
*519 la_oenb[92]
*520 la_oenb[93]
*521 la_oenb[94]
*522 la_oenb[95]
*523 la_oenb[96]
*524 la_oenb[97]
*525 la_oenb[98]
*526 la_oenb[99]
*527 la_oenb[9]
*528 user_clock2
*529 user_irq[0]
*530 user_irq[1]
*531 user_irq[2]
*540 wb_clk_i
*541 wb_rst_i
*542 wbs_ack_o
*543 wbs_adr_i[0]
*544 wbs_adr_i[10]
*545 wbs_adr_i[11]
*546 wbs_adr_i[12]
*547 wbs_adr_i[13]
*548 wbs_adr_i[14]
*549 wbs_adr_i[15]
*550 wbs_adr_i[16]
*551 wbs_adr_i[17]
*552 wbs_adr_i[18]
*553 wbs_adr_i[19]
*554 wbs_adr_i[1]
*555 wbs_adr_i[20]
*556 wbs_adr_i[21]
*557 wbs_adr_i[22]
*558 wbs_adr_i[23]
*559 wbs_adr_i[24]
*560 wbs_adr_i[25]
*561 wbs_adr_i[26]
*562 wbs_adr_i[27]
*563 wbs_adr_i[28]
*564 wbs_adr_i[29]
*565 wbs_adr_i[2]
*566 wbs_adr_i[30]
*567 wbs_adr_i[31]
*568 wbs_adr_i[3]
*569 wbs_adr_i[4]
*570 wbs_adr_i[5]
*571 wbs_adr_i[6]
*572 wbs_adr_i[7]
*573 wbs_adr_i[8]
*574 wbs_adr_i[9]
*575 wbs_cyc_i
*576 wbs_dat_i[0]
*577 wbs_dat_i[10]
*578 wbs_dat_i[11]
*579 wbs_dat_i[12]
*580 wbs_dat_i[13]
*581 wbs_dat_i[14]
*582 wbs_dat_i[15]
*583 wbs_dat_i[16]
*584 wbs_dat_i[17]
*585 wbs_dat_i[18]
*586 wbs_dat_i[19]
*587 wbs_dat_i[1]
*588 wbs_dat_i[20]
*589 wbs_dat_i[21]
*590 wbs_dat_i[22]
*591 wbs_dat_i[23]
*592 wbs_dat_i[24]
*593 wbs_dat_i[25]
*594 wbs_dat_i[26]
*595 wbs_dat_i[27]
*596 wbs_dat_i[28]
*597 wbs_dat_i[29]
*598 wbs_dat_i[2]
*599 wbs_dat_i[30]
*600 wbs_dat_i[31]
*601 wbs_dat_i[3]
*602 wbs_dat_i[4]
*603 wbs_dat_i[5]
*604 wbs_dat_i[6]
*605 wbs_dat_i[7]
*606 wbs_dat_i[8]
*607 wbs_dat_i[9]
*608 wbs_dat_o[0]
*609 wbs_dat_o[10]
*610 wbs_dat_o[11]
*611 wbs_dat_o[12]
*612 wbs_dat_o[13]
*613 wbs_dat_o[14]
*614 wbs_dat_o[15]
*615 wbs_dat_o[16]
*616 wbs_dat_o[17]
*617 wbs_dat_o[18]
*618 wbs_dat_o[19]
*619 wbs_dat_o[1]
*620 wbs_dat_o[20]
*621 wbs_dat_o[21]
*622 wbs_dat_o[22]
*623 wbs_dat_o[23]
*624 wbs_dat_o[24]
*625 wbs_dat_o[25]
*626 wbs_dat_o[26]
*627 wbs_dat_o[27]
*628 wbs_dat_o[28]
*629 wbs_dat_o[29]
*630 wbs_dat_o[2]
*631 wbs_dat_o[30]
*632 wbs_dat_o[31]
*633 wbs_dat_o[3]
*634 wbs_dat_o[4]
*635 wbs_dat_o[5]
*636 wbs_dat_o[6]
*637 wbs_dat_o[7]
*638 wbs_dat_o[8]
*639 wbs_dat_o[9]
*640 wbs_sel_i[0]
*641 wbs_sel_i[1]
*642 wbs_sel_i[2]
*643 wbs_sel_i[3]
*644 wbs_stb_i
*645 wbs_we_i
*646 afe_data\[0\]
*647 afe_data\[10\]
*648 afe_data\[11\]
*649 afe_data\[1\]
*650 afe_data\[2\]
*651 afe_data\[3\]
*652 afe_data\[4\]
*653 afe_data\[5\]
*654 afe_data\[6\]
*655 afe_data\[7\]
*656 afe_data\[8\]
*657 afe_data\[9\]
*658 afe_eof
*659 afe_ibias
*660 afe_nbias
*661 afe_refby2
*662 afe_refhi
*663 afe_vout
*664 afe_vref
*665 analog_ctrl\[0\]
*666 analog_ctrl\[100\]
*667 analog_ctrl\[101\]
*668 analog_ctrl\[102\]
*669 analog_ctrl\[103\]
*670 analog_ctrl\[104\]
*671 analog_ctrl\[105\]
*672 analog_ctrl\[106\]
*673 analog_ctrl\[107\]
*674 analog_ctrl\[108\]
*675 analog_ctrl\[109\]
*676 analog_ctrl\[10\]
*677 analog_ctrl\[110\]
*678 analog_ctrl\[111\]
*679 analog_ctrl\[112\]
*680 analog_ctrl\[113\]
*681 analog_ctrl\[114\]
*682 analog_ctrl\[115\]
*683 analog_ctrl\[116\]
*684 analog_ctrl\[117\]
*685 analog_ctrl\[118\]
*686 analog_ctrl\[119\]
*687 analog_ctrl\[11\]
*688 analog_ctrl\[120\]
*689 analog_ctrl\[121\]
*690 analog_ctrl\[122\]
*691 analog_ctrl\[12\]
*692 analog_ctrl\[13\]
*693 analog_ctrl\[14\]
*694 analog_ctrl\[15\]
*695 analog_ctrl\[16\]
*696 analog_ctrl\[17\]
*697 analog_ctrl\[18\]
*698 analog_ctrl\[19\]
*699 analog_ctrl\[1\]
*700 analog_ctrl\[20\]
*701 analog_ctrl\[21\]
*702 analog_ctrl\[22\]
*703 analog_ctrl\[23\]
*704 analog_ctrl\[24\]
*705 analog_ctrl\[25\]
*706 analog_ctrl\[26\]
*707 analog_ctrl\[27\]
*708 analog_ctrl\[28\]
*709 analog_ctrl\[29\]
*710 analog_ctrl\[2\]
*711 analog_ctrl\[30\]
*712 analog_ctrl\[31\]
*713 analog_ctrl\[32\]
*714 analog_ctrl\[33\]
*715 analog_ctrl\[34\]
*716 analog_ctrl\[35\]
*717 analog_ctrl\[36\]
*718 analog_ctrl\[37\]
*719 analog_ctrl\[38\]
*720 analog_ctrl\[39\]
*721 analog_ctrl\[3\]
*722 analog_ctrl\[40\]
*723 analog_ctrl\[41\]
*724 analog_ctrl\[42\]
*725 analog_ctrl\[43\]
*726 analog_ctrl\[44\]
*727 analog_ctrl\[45\]
*728 analog_ctrl\[46\]
*729 analog_ctrl\[47\]
*730 analog_ctrl\[48\]
*731 analog_ctrl\[49\]
*732 analog_ctrl\[4\]
*733 analog_ctrl\[50\]
*734 analog_ctrl\[51\]
*735 analog_ctrl\[52\]
*736 analog_ctrl\[53\]
*737 analog_ctrl\[54\]
*738 analog_ctrl\[55\]
*739 analog_ctrl\[56\]
*740 analog_ctrl\[57\]
*741 analog_ctrl\[58\]
*742 analog_ctrl\[59\]
*743 analog_ctrl\[5\]
*744 analog_ctrl\[60\]
*745 analog_ctrl\[61\]
*746 analog_ctrl\[62\]
*747 analog_ctrl\[63\]
*748 analog_ctrl\[64\]
*749 analog_ctrl\[65\]
*750 analog_ctrl\[66\]
*751 analog_ctrl\[67\]
*752 analog_ctrl\[68\]
*753 analog_ctrl\[69\]
*754 analog_ctrl\[6\]
*755 analog_ctrl\[70\]
*756 analog_ctrl\[71\]
*757 analog_ctrl\[72\]
*758 analog_ctrl\[73\]
*759 analog_ctrl\[74\]
*760 analog_ctrl\[75\]
*761 analog_ctrl\[76\]
*762 analog_ctrl\[77\]
*763 analog_ctrl\[78\]
*764 analog_ctrl\[79\]
*765 analog_ctrl\[7\]
*766 analog_ctrl\[80\]
*767 analog_ctrl\[81\]
*768 analog_ctrl\[82\]
*769 analog_ctrl\[83\]
*770 analog_ctrl\[84\]
*771 analog_ctrl\[85\]
*772 analog_ctrl\[86\]
*773 analog_ctrl\[87\]
*774 analog_ctrl\[88\]
*775 analog_ctrl\[89\]
*776 analog_ctrl\[8\]
*777 analog_ctrl\[90\]
*778 analog_ctrl\[91\]
*779 analog_ctrl\[92\]
*780 analog_ctrl\[93\]
*781 analog_ctrl\[94\]
*782 analog_ctrl\[95\]
*783 analog_ctrl\[96\]
*784 analog_ctrl\[97\]
*785 analog_ctrl\[98\]
*786 analog_ctrl\[99\]
*787 analog_ctrl\[9\]
*788 u_afe_wb
*789 u_cf_adc_sar12
*790 u_cf_adc_sar12_sar_refs
*791 u_cf_bgr
*792 u_cf_buf_hiz
*793 u_cf_refbuf

*PORTS
analog_io[0] I
analog_io[10] I
analog_io[11] I
analog_io[12] I
analog_io[13] I
analog_io[14] I
analog_io[15] I
analog_io[16] I
analog_io[17] I
analog_io[18] I
analog_io[19] I
analog_io[1] I
analog_io[20] I
analog_io[21] I
analog_io[22] I
analog_io[23] I
analog_io[24] I
analog_io[25] I
analog_io[26] I
analog_io[27] I
analog_io[28] I
analog_io[2] I
analog_io[3] I
analog_io[4] I
analog_io[5] I
analog_io[6] I
analog_io[7] I
analog_io[8] I
analog_io[9] I
io_in[0] I
io_in[10] I
io_in[11] I
io_in[12] I
io_in[13] I
io_in[14] I
io_in[15] I
io_in[16] I
io_in[17] I
io_in[18] I
io_in[19] I
io_in[1] I
io_in[20] I
io_in[21] I
io_in[22] I
io_in[23] I
io_in[24] I
io_in[25] I
io_in[26] I
io_in[27] I
io_in[28] I
io_in[29] I
io_in[2] I
io_in[30] I
io_in[31] I
io_in[32] I
io_in[33] I
io_in[34] I
io_in[35] I
io_in[36] I
io_in[37] I
io_in[3] I
io_in[4] I
io_in[5] I
io_in[6] I
io_in[7] I
io_in[8] I
io_in[9] I
io_oeb[0] O
io_oeb[10] O
io_oeb[11] O
io_oeb[12] O
io_oeb[13] O
io_oeb[14] O
io_oeb[15] O
io_oeb[16] O
io_oeb[17] O
io_oeb[18] O
io_oeb[19] O
io_oeb[1] O
io_oeb[20] O
io_oeb[21] O
io_oeb[22] O
io_oeb[23] O
io_oeb[24] O
io_oeb[25] O
io_oeb[26] O
io_oeb[27] O
io_oeb[28] O
io_oeb[29] O
io_oeb[2] O
io_oeb[30] O
io_oeb[31] O
io_oeb[32] O
io_oeb[33] O
io_oeb[34] O
io_oeb[35] O
io_oeb[36] O
io_oeb[37] O
io_oeb[3] O
io_oeb[4] O
io_oeb[5] O
io_oeb[6] O
io_oeb[7] O
io_oeb[8] O
io_oeb[9] O
io_out[0] O
io_out[10] O
io_out[11] O
io_out[12] O
io_out[13] O
io_out[14] O
io_out[15] O
io_out[16] O
io_out[17] O
io_out[18] O
io_out[19] O
io_out[1] O
io_out[20] O
io_out[21] O
io_out[22] O
io_out[23] O
io_out[24] O
io_out[25] O
io_out[26] O
io_out[27] O
io_out[28] O
io_out[29] O
io_out[2] O
io_out[30] O
io_out[31] O
io_out[32] O
io_out[33] O
io_out[34] O
io_out[35] O
io_out[36] O
io_out[37] O
io_out[3] O
io_out[4] O
io_out[5] O
io_out[6] O
io_out[7] O
io_out[8] O
io_out[9] O
la_data_in[0] I
la_data_in[100] I
la_data_in[101] I
la_data_in[102] I
la_data_in[103] I
la_data_in[104] I
la_data_in[105] I
la_data_in[106] I
la_data_in[107] I
la_data_in[108] I
la_data_in[109] I
la_data_in[10] I
la_data_in[110] I
la_data_in[111] I
la_data_in[112] I
la_data_in[113] I
la_data_in[114] I
la_data_in[115] I
la_data_in[116] I
la_data_in[117] I
la_data_in[118] I
la_data_in[119] I
la_data_in[11] I
la_data_in[120] I
la_data_in[121] I
la_data_in[122] I
la_data_in[123] I
la_data_in[124] I
la_data_in[125] I
la_data_in[126] I
la_data_in[127] I
la_data_in[12] I
la_data_in[13] I
la_data_in[14] I
la_data_in[15] I
la_data_in[16] I
la_data_in[17] I
la_data_in[18] I
la_data_in[19] I
la_data_in[1] I
la_data_in[20] I
la_data_in[21] I
la_data_in[22] I
la_data_in[23] I
la_data_in[24] I
la_data_in[25] I
la_data_in[26] I
la_data_in[27] I
la_data_in[28] I
la_data_in[29] I
la_data_in[2] I
la_data_in[30] I
la_data_in[31] I
la_data_in[32] I
la_data_in[33] I
la_data_in[34] I
la_data_in[35] I
la_data_in[36] I
la_data_in[37] I
la_data_in[38] I
la_data_in[39] I
la_data_in[3] I
la_data_in[40] I
la_data_in[41] I
la_data_in[42] I
la_data_in[43] I
la_data_in[44] I
la_data_in[45] I
la_data_in[46] I
la_data_in[47] I
la_data_in[48] I
la_data_in[49] I
la_data_in[4] I
la_data_in[50] I
la_data_in[51] I
la_data_in[52] I
la_data_in[53] I
la_data_in[54] I
la_data_in[55] I
la_data_in[56] I
la_data_in[57] I
la_data_in[58] I
la_data_in[59] I
la_data_in[5] I
la_data_in[60] I
la_data_in[61] I
la_data_in[62] I
la_data_in[63] I
la_data_in[64] I
la_data_in[65] I
la_data_in[66] I
la_data_in[67] I
la_data_in[68] I
la_data_in[69] I
la_data_in[6] I
la_data_in[70] I
la_data_in[71] I
la_data_in[72] I
la_data_in[73] I
la_data_in[74] I
la_data_in[75] I
la_data_in[76] I
la_data_in[77] I
la_data_in[78] I
la_data_in[79] I
la_data_in[7] I
la_data_in[80] I
la_data_in[81] I
la_data_in[82] I
la_data_in[83] I
la_data_in[84] I
la_data_in[85] I
la_data_in[86] I
la_data_in[87] I
la_data_in[88] I
la_data_in[89] I
la_data_in[8] I
la_data_in[90] I
la_data_in[91] I
la_data_in[92] I
la_data_in[93] I
la_data_in[94] I
la_data_in[95] I
la_data_in[96] I
la_data_in[97] I
la_data_in[98] I
la_data_in[99] I
la_data_in[9] I
la_data_out[0] O
la_data_out[100] O
la_data_out[101] O
la_data_out[102] O
la_data_out[103] O
la_data_out[104] O
la_data_out[105] O
la_data_out[106] O
la_data_out[107] O
la_data_out[108] O
la_data_out[109] O
la_data_out[10] O
la_data_out[110] O
la_data_out[111] O
la_data_out[112] O
la_data_out[113] O
la_data_out[114] O
la_data_out[115] O
la_data_out[116] O
la_data_out[117] O
la_data_out[118] O
la_data_out[119] O
la_data_out[11] O
la_data_out[120] O
la_data_out[121] O
la_data_out[122] O
la_data_out[123] O
la_data_out[124] O
la_data_out[125] O
la_data_out[126] O
la_data_out[127] O
la_data_out[12] O
la_data_out[13] O
la_data_out[14] O
la_data_out[15] O
la_data_out[16] O
la_data_out[17] O
la_data_out[18] O
la_data_out[19] O
la_data_out[1] O
la_data_out[20] O
la_data_out[21] O
la_data_out[22] O
la_data_out[23] O
la_data_out[24] O
la_data_out[25] O
la_data_out[26] O
la_data_out[27] O
la_data_out[28] O
la_data_out[29] O
la_data_out[2] O
la_data_out[30] O
la_data_out[31] O
la_data_out[32] O
la_data_out[33] O
la_data_out[34] O
la_data_out[35] O
la_data_out[36] O
la_data_out[37] O
la_data_out[38] O
la_data_out[39] O
la_data_out[3] O
la_data_out[40] O
la_data_out[41] O
la_data_out[42] O
la_data_out[43] O
la_data_out[44] O
la_data_out[45] O
la_data_out[46] O
la_data_out[47] O
la_data_out[48] O
la_data_out[49] O
la_data_out[4] O
la_data_out[50] O
la_data_out[51] O
la_data_out[52] O
la_data_out[53] O
la_data_out[54] O
la_data_out[55] O
la_data_out[56] O
la_data_out[57] O
la_data_out[58] O
la_data_out[59] O
la_data_out[5] O
la_data_out[60] O
la_data_out[61] O
la_data_out[62] O
la_data_out[63] O
la_data_out[64] O
la_data_out[65] O
la_data_out[66] O
la_data_out[67] O
la_data_out[68] O
la_data_out[69] O
la_data_out[6] O
la_data_out[70] O
la_data_out[71] O
la_data_out[72] O
la_data_out[73] O
la_data_out[74] O
la_data_out[75] O
la_data_out[76] O
la_data_out[77] O
la_data_out[78] O
la_data_out[79] O
la_data_out[7] O
la_data_out[80] O
la_data_out[81] O
la_data_out[82] O
la_data_out[83] O
la_data_out[84] O
la_data_out[85] O
la_data_out[86] O
la_data_out[87] O
la_data_out[88] O
la_data_out[89] O
la_data_out[8] O
la_data_out[90] O
la_data_out[91] O
la_data_out[92] O
la_data_out[93] O
la_data_out[94] O
la_data_out[95] O
la_data_out[96] O
la_data_out[97] O
la_data_out[98] O
la_data_out[99] O
la_data_out[9] O
la_oenb[0] I
la_oenb[100] I
la_oenb[101] I
la_oenb[102] I
la_oenb[103] I
la_oenb[104] I
la_oenb[105] I
la_oenb[106] I
la_oenb[107] I
la_oenb[108] I
la_oenb[109] I
la_oenb[10] I
la_oenb[110] I
la_oenb[111] I
la_oenb[112] I
la_oenb[113] I
la_oenb[114] I
la_oenb[115] I
la_oenb[116] I
la_oenb[117] I
la_oenb[118] I
la_oenb[119] I
la_oenb[11] I
la_oenb[120] I
la_oenb[121] I
la_oenb[122] I
la_oenb[123] I
la_oenb[124] I
la_oenb[125] I
la_oenb[126] I
la_oenb[127] I
la_oenb[12] I
la_oenb[13] I
la_oenb[14] I
la_oenb[15] I
la_oenb[16] I
la_oenb[17] I
la_oenb[18] I
la_oenb[19] I
la_oenb[1] I
la_oenb[20] I
la_oenb[21] I
la_oenb[22] I
la_oenb[23] I
la_oenb[24] I
la_oenb[25] I
la_oenb[26] I
la_oenb[27] I
la_oenb[28] I
la_oenb[29] I
la_oenb[2] I
la_oenb[30] I
la_oenb[31] I
la_oenb[32] I
la_oenb[33] I
la_oenb[34] I
la_oenb[35] I
la_oenb[36] I
la_oenb[37] I
la_oenb[38] I
la_oenb[39] I
la_oenb[3] I
la_oenb[40] I
la_oenb[41] I
la_oenb[42] I
la_oenb[43] I
la_oenb[44] I
la_oenb[45] I
la_oenb[46] I
la_oenb[47] I
la_oenb[48] I
la_oenb[49] I
la_oenb[4] I
la_oenb[50] I
la_oenb[51] I
la_oenb[52] I
la_oenb[53] I
la_oenb[54] I
la_oenb[55] I
la_oenb[56] I
la_oenb[57] I
la_oenb[58] I
la_oenb[59] I
la_oenb[5] I
la_oenb[60] I
la_oenb[61] I
la_oenb[62] I
la_oenb[63] I
la_oenb[64] I
la_oenb[65] I
la_oenb[66] I
la_oenb[67] I
la_oenb[68] I
la_oenb[69] I
la_oenb[6] I
la_oenb[70] I
la_oenb[71] I
la_oenb[72] I
la_oenb[73] I
la_oenb[74] I
la_oenb[75] I
la_oenb[76] I
la_oenb[77] I
la_oenb[78] I
la_oenb[79] I
la_oenb[7] I
la_oenb[80] I
la_oenb[81] I
la_oenb[82] I
la_oenb[83] I
la_oenb[84] I
la_oenb[85] I
la_oenb[86] I
la_oenb[87] I
la_oenb[88] I
la_oenb[89] I
la_oenb[8] I
la_oenb[90] I
la_oenb[91] I
la_oenb[92] I
la_oenb[93] I
la_oenb[94] I
la_oenb[95] I
la_oenb[96] I
la_oenb[97] I
la_oenb[98] I
la_oenb[99] I
la_oenb[9] I
user_clock2 I
user_irq[0] O
user_irq[1] O
user_irq[2] O
wb_clk_i I
wb_rst_i I
wbs_ack_o O
wbs_adr_i[0] I
wbs_adr_i[10] I
wbs_adr_i[11] I
wbs_adr_i[12] I
wbs_adr_i[13] I
wbs_adr_i[14] I
wbs_adr_i[15] I
wbs_adr_i[16] I
wbs_adr_i[17] I
wbs_adr_i[18] I
wbs_adr_i[19] I
wbs_adr_i[1] I
wbs_adr_i[20] I
wbs_adr_i[21] I
wbs_adr_i[22] I
wbs_adr_i[23] I
wbs_adr_i[24] I
wbs_adr_i[25] I
wbs_adr_i[26] I
wbs_adr_i[27] I
wbs_adr_i[28] I
wbs_adr_i[29] I
wbs_adr_i[2] I
wbs_adr_i[30] I
wbs_adr_i[31] I
wbs_adr_i[3] I
wbs_adr_i[4] I
wbs_adr_i[5] I
wbs_adr_i[6] I
wbs_adr_i[7] I
wbs_adr_i[8] I
wbs_adr_i[9] I
wbs_cyc_i I
wbs_dat_i[0] I
wbs_dat_i[10] I
wbs_dat_i[11] I
wbs_dat_i[12] I
wbs_dat_i[13] I
wbs_dat_i[14] I
wbs_dat_i[15] I
wbs_dat_i[16] I
wbs_dat_i[17] I
wbs_dat_i[18] I
wbs_dat_i[19] I
wbs_dat_i[1] I
wbs_dat_i[20] I
wbs_dat_i[21] I
wbs_dat_i[22] I
wbs_dat_i[23] I
wbs_dat_i[24] I
wbs_dat_i[25] I
wbs_dat_i[26] I
wbs_dat_i[27] I
wbs_dat_i[28] I
wbs_dat_i[29] I
wbs_dat_i[2] I
wbs_dat_i[30] I
wbs_dat_i[31] I
wbs_dat_i[3] I
wbs_dat_i[4] I
wbs_dat_i[5] I
wbs_dat_i[6] I
wbs_dat_i[7] I
wbs_dat_i[8] I
wbs_dat_i[9] I
wbs_dat_o[0] O
wbs_dat_o[10] O
wbs_dat_o[11] O
wbs_dat_o[12] O
wbs_dat_o[13] O
wbs_dat_o[14] O
wbs_dat_o[15] O
wbs_dat_o[16] O
wbs_dat_o[17] O
wbs_dat_o[18] O
wbs_dat_o[19] O
wbs_dat_o[1] O
wbs_dat_o[20] O
wbs_dat_o[21] O
wbs_dat_o[22] O
wbs_dat_o[23] O
wbs_dat_o[24] O
wbs_dat_o[25] O
wbs_dat_o[26] O
wbs_dat_o[27] O
wbs_dat_o[28] O
wbs_dat_o[29] O
wbs_dat_o[2] O
wbs_dat_o[30] O
wbs_dat_o[31] O
wbs_dat_o[3] O
wbs_dat_o[4] O
wbs_dat_o[5] O
wbs_dat_o[6] O
wbs_dat_o[7] O
wbs_dat_o[8] O
wbs_dat_o[9] O
wbs_sel_i[0] I
wbs_sel_i[1] I
wbs_sel_i[2] I
wbs_sel_i[3] I
wbs_stb_i I
wbs_we_i I

*D_NET *1 0.280921
*CONN
*P analog_io[0] I
*I *791:vb2_fast I *D CF_BGR
*CAP
1 analog_io[0] 0.121956
2 *791:vb2_fast 8.83758e-05
3 *1:14 0.011425
4 *1:12 0.0113366
5 *1:10 0.00268927
6 *1:8 0.00268927
7 *1:6 0.121956
8 *1:10 *25:10 0.00528567
9 *1:14 *791:en_startb 0.00349421
*RES
1 analog_io[0] *1:6 264.277 
2 *1:6 *1:8 3.41 
3 *1:8 *1:10 84.6696 
4 *1:10 *1:12 4.5 
5 *1:12 *1:14 216.161 
6 *1:14 *791:vb2_fast 1.94196 
*END

*D_NET *2 0.501666
*CONN
*P analog_io[10] I
*I *792:vbnt I *D CF_BUF_HIZ
*CAP
1 analog_io[10] 0.000361957
2 *792:vbnt 0
3 *2:42 0.0162689
4 *2:36 0.0248364
5 *2:22 0.0772858
6 *2:20 0.0687182
7 *2:18 0.113834
8 *2:16 0.114196
9 *2:16 *29:10 1.24972e-05
10 *2:22 *5:10 0.0107339
11 *2:22 *18:30 0.00652951
12 *2:22 *22:14 0.0185907
13 *2:22 *650:13 0.0138768
14 *2:36 *5:10 0.0121451
15 *2:36 *5:24 0.0009109
16 *2:36 *18:26 7.50988e-05
17 *2:36 *658:9 0.0108964
18 *2:36 *764:15 0.00047495
19 *2:42 *4:34 0.00959238
20 *2:42 *5:24 0
21 *2:42 *7:18 0.00232699
*RES
1 analog_io[10] *2:16 10.4654 
2 *2:16 *2:18 259.635 
3 *2:18 *2:20 3.41 
4 *2:20 *2:22 180.394 
5 *2:22 *2:36 46.8497 
6 *2:36 *2:42 49.3911 
7 *2:42 *792:vbnt 3.41 
*END

*D_NET *3 0.460726
*CONN
*P analog_io[11] I
*I *792:vbpb I *D CF_BUF_HIZ
*CAP
1 analog_io[11] 0.100311
2 *792:vbpb 7.72935e-05
3 *3:30 0.0113325
4 *3:24 0.0214059
5 *3:10 0.0449216
6 *3:8 0.0347709
7 *3:6 0.100311
8 *3:10 *6:10 1.87422e-05
9 *3:10 *12:14 0.0711621
10 *3:10 *24:14 0.00203222
11 *3:10 *24:18 0.0501144
12 *3:10 *29:34 6.55549e-06
13 *3:10 *670:21 0.00269086
14 *3:24 *6:10 1.57955e-05
15 *3:24 *12:32 0.0059386
16 *3:24 *24:18 0.0113299
17 *3:24 *29:34 0.0017192
18 *3:24 *751:17 0.000236602
19 *3:24 *751:19 0.00225426
20 *3:30 *20:12 7.57779e-05
21 *3:30 *26:42 0
*RES
1 analog_io[11] *3:6 2066.17 
2 *3:6 *3:8 3.41 
3 *3:8 *3:10 155.428 
4 *3:10 *3:24 38.6555 
5 *3:24 *3:30 28.6635 
6 *3:30 *792:vbpb 4.79839 
*END

*D_NET *4 0.397565
*CONN
*P analog_io[12] I
*I *792:vbpc I *D CF_BUF_HIZ
*CAP
1 analog_io[12] 0.000849289
2 *792:vbpc 0
3 *4:34 0.00825825
4 *4:18 0.0483229
5 *4:16 0.0400647
6 *4:14 0.100238
7 *4:12 0.101087
8 *4:12 *29:10 0.00015359
9 *4:18 *793:pd 0.000457611
10 *4:18 *793:boost 0.00139235
11 *4:18 *7:12 0.00969896
12 *4:18 *22:14 0
13 *4:18 *24:18 0.069728
14 *4:34 *5:24 0.000154395
15 *4:34 *7:18 0.00717331
16 *4:34 *19:18 0.000205114
17 *4:34 *29:54 0
18 *4:34 *759:15 0.000189018
19 *2:42 *4:34 0.00959238
*RES
1 analog_io[12] *4:12 13.125 
2 *4:12 *4:14 2064.41 
3 *4:14 *4:16 3.41 
4 *4:16 *4:18 138.698 
5 *4:18 *4:34 44.8749 
6 *4:34 *792:vbpc 3.41 
*END

*D_NET *5 0.379972
*CONN
*P analog_io[13] I
*I *792:vbnc I *D CF_BUF_HIZ
*CAP
1 analog_io[13] 0.100991
2 *792:vbnc 0
3 *5:24 0.0119055
4 *5:10 0.0437222
5 *5:8 0.0318166
6 *5:6 0.100991
7 *5:10 *789:reset_n 0.000575613
8 *5:10 *18:30 0.0202202
9 *5:10 *26:18 0.038574
10 *5:10 *658:9 0.00609576
11 *5:24 *13:20 0.000517015
12 *5:24 *18:26 0.000582483
13 *5:24 *18:30 3.54531e-05
14 *5:24 *663:17 0
15 *2:22 *5:10 0.0107339
16 *2:36 *5:10 0.0121451
17 *2:36 *5:24 0.0009109
18 *2:42 *5:24 0
19 *4:34 *5:24 0.000154395
*RES
1 analog_io[13] *5:6 2078.92 
2 *5:6 *5:8 3.41 
3 *5:8 *5:10 101.172 
4 *5:10 *5:24 34.3262 
5 *5:24 *792:vbnc 3.41 
*END

*D_NET *6 0.325627
*CONN
*P analog_io[14] I
*I *792:vbpci I *D CF_BUF_HIZ
*CAP
1 analog_io[14] 0.100195
2 *792:vbpci 0.000117611
3 *6:34 0.00173232
4 *6:22 0.0195655
5 *6:20 0.0179508
6 *6:18 0.00200307
7 *6:10 0.0223811
8 *6:8 0.020378
9 *6:6 0.100195
10 *792:vbpci *10:20 0
11 *6:10 *791:finetune 3.21738e-05
12 *6:10 *791:trimTC[6] 0.00137013
13 *6:10 *12:14 0.021285
14 *6:10 *12:22 0.000870385
15 *6:10 *12:32 0.00241135
16 *6:10 *29:34 0.00221018
17 *6:10 *29:38 0.00104016
18 *6:18 *12:32 0.00078094
19 *6:18 *29:38 7.62237e-05
20 *6:18 *29:48 0.000763968
21 *6:18 *751:17 0
22 *6:22 *648:25 0.0102333
23 *3:10 *6:10 1.87422e-05
24 *3:24 *6:10 1.57955e-05
*RES
1 analog_io[14] *6:6 2063.74 
2 *6:6 *6:8 3.41 
3 *6:8 *6:10 57.34 
4 *6:10 *6:18 48.1511 
5 *6:18 *6:20 4.5 
6 *6:20 *6:22 363.045 
7 *6:22 *6:34 10.6614 
8 *6:34 *792:vbpci 2.50446 
*END

*D_NET *7 0.287592
*CONN
*P analog_io[15] I
*I *792:vbnci I *D CF_BUF_HIZ
*CAP
1 analog_io[15] 0.100547
2 *792:vbnci 0
3 *7:18 0.0129334
4 *7:12 0.0196531
5 *7:6 0.107267
6 *7:6 *793:pd 0.000123191
7 *7:12 *22:14 0.0014246
8 *7:12 *24:18 0.000104312
9 *7:12 *25:16 0.0129505
10 *7:18 *29:54 0.0133898
11 *2:42 *7:18 0.00232699
12 *4:18 *7:12 0.00969896
13 *4:34 *7:18 0.00717331
*RES
1 analog_io[15] *7:6 2071.03 
2 *7:6 *7:12 38.5506 
3 *7:12 *7:18 47.3044 
4 *7:18 *792:vbnci 6.82 
*END

*D_NET *8 0.272793
*CONN
*P analog_io[16] I
*I *792:vbpcis I *D CF_BUF_HIZ
*CAP
1 analog_io[16] 0.00134017
2 *792:vbpcis 4.21139e-05
3 *8:18 0.00170854
4 *8:14 0.127768
5 *8:12 0.127441
6 *8:14 *781:34 0.0144734
7 *8:18 *29:54 1.9531e-05
*RES
1 analog_io[16] *8:12 24.9333 
2 *8:12 *8:14 298.34 
3 *8:14 *8:18 7.0346 
4 *8:18 *792:vbpcis 4.07964 
*END

*D_NET *9 0.280774
*CONN
*P analog_io[17] I
*I *792:vbncis I *D CF_BUF_HIZ
*CAP
1 analog_io[17] 0.000145804
2 *792:vbncis 7.52502e-05
3 *9:28 0.00804518
4 *9:22 0.0250486
5 *9:18 0.0267341
6 *9:12 0.1051
7 *9:10 0.0955899
8 *9:12 *17:12 0.0200351
*RES
1 analog_io[17] *9:10 3.73452 
2 *9:10 *9:12 2079.59 
3 *9:12 *9:18 26.4022 
4 *9:18 *9:22 42.0373 
5 *9:22 *9:28 20.3564 
6 *9:28 *792:vbncis 1.5 
*END

*D_NET *10 0.266129
*CONN
*P analog_io[18] I
*I *792:vbpcid I *D CF_BUF_HIZ
*CAP
1 analog_io[18] 0.00111575
2 *792:vbpcid 5.5165e-05
3 *10:22 0.000134794
4 *10:20 0.0175662
5 *10:18 0.0340728
6 *10:12 0.106857
7 *10:10 0.0913868
8 *792:vbpcid *792:vbptd 4.94067e-05
9 *10:18 *780:16 0.00393461
10 *10:20 *769:25 0.0109557
11 *792:vbpci *10:20 0
*RES
1 analog_io[18] *10:10 5.58767 
2 *10:10 *10:12 1859.2 
3 *10:12 *10:18 44.0328 
4 *10:18 *10:20 356.192 
5 *10:20 *10:22 1.35714 
6 *10:22 *792:vbpcid 1.70536 
*END

*D_NET *11 0.238727
*CONN
*P analog_io[19] I
*I *792:vbptd I *D CF_BUF_HIZ
*CAP
1 analog_io[19] 0.00388312
2 *792:vbptd 3.31925e-05
3 *11:26 0.015482
4 *11:18 0.0286816
5 *11:12 0.0928711
6 *11:10 0.0835215
7 *11:18 *19:18 0
8 *11:18 *759:15 0
9 *11:18 *773:19 0.00475553
10 *11:26 *19:24 0
11 *11:26 *769:25 0.00944997
12 *792:vbpcid *792:vbptd 4.94067e-05
*RES
1 analog_io[19] *11:10 11.5097 
2 *11:10 *11:12 1640.02 
3 *11:12 *11:18 37.4181 
4 *11:18 *11:26 46.7412 
5 *11:26 *792:vbptd 4.29393 
*END

*D_NET *12 0.428282
*CONN
*P analog_io[1] I
*I *792:vinp_p I *D CF_BUF_HIZ
*CAP
1 analog_io[1] 0.000170669
2 *792:vinp_p 3.41224e-05
3 *12:48 0.000330945
4 *12:44 0.015054
5 *12:32 0.0216439
6 *12:22 0.009232
7 *12:20 0.002424
8 *12:14 0.0913359
9 *12:12 0.0912571
10 *12:10 0.0137307
11 *12:8 0.0139014
12 *792:vinp_p *792:vinn_na 6.68687e-05
13 *12:10 *22:10 0.0271381
14 *12:14 *24:14 0.0295558
15 *12:14 *29:34 0.000461765
16 *12:20 *29:34 7.25272e-06
17 *12:22 *29:34 8.38524e-05
18 *12:22 *29:38 6.07538e-05
19 *12:22 *751:19 0
20 *12:32 *791:mux2sel 3.03088e-05
21 *12:32 *791:pd 0.000183428
22 *12:32 *791:inl_ctrl[0] 3.40071e-05
23 *12:32 *791:inl_ctrl[5] 0
24 *12:32 *24:18 0.00142531
25 *12:32 *29:34 2.70583e-05
26 *12:32 *29:48 0.00313421
27 *12:32 *751:19 0.000851687
28 *12:44 *26:42 0.00285543
29 *12:44 *663:13 0.000592775
30 *12:44 *743:37 9.39568e-05
31 *12:48 *792:vinp_n 0
32 *12:48 *792:vinn_n 1.26495e-05
33 *12:48 *24:40 1.01613e-05
34 *12:48 *26:42 9.30948e-05
35 *3:10 *12:14 0.0711621
36 *3:24 *12:32 0.0059386
37 *6:10 *12:14 0.021285
38 *6:10 *12:22 0.000870385
39 *6:10 *12:32 0.00241135
40 *6:18 *12:32 0.00078094
*RES
1 analog_io[1] *12:8 3.71662 
2 *12:8 *12:10 435.446 
3 *12:10 *12:12 3.41 
4 *12:12 *12:14 268.238 
5 *12:14 *12:20 8.79393 
6 *12:20 *12:22 45.7143 
7 *12:22 *12:32 36.419 
8 *12:32 *12:44 47.1438 
9 *12:44 *12:48 5.0625 
10 *12:48 *792:vinp_p 1.125 
*END

*D_NET *13 0.304848
*CONN
*P analog_io[20] I
*I *789:vinm I *D CF_ADC_SAR12
*CAP
1 analog_io[20] 0.00477589
2 *789:vinm 9.06127e-05
3 *13:20 0.0425785
4 *13:18 0.0424879
5 *13:16 0.103131
6 *13:14 0.107907
7 *789:vinm *789:vreflo 0
8 *13:20 *789:vreflo 0
9 *13:20 *659:32 0.00335971
10 *13:20 *663:17 0
11 *5:24 *13:20 0.000517015
*RES
1 analog_io[20] *13:14 13.4042 
2 *13:14 *13:16 193.329 
3 *13:16 *13:18 3.41 
4 *13:18 *13:20 92.2666 
5 *13:20 *789:vinm 0.3478 
*END

*D_NET *14 0.300232
*CONN
*P analog_io[21] I
*I *790:refout O *D CF_ADC_SAR12_sar_refs
*CAP
1 analog_io[21] 0.00194247
2 *790:refout 0.000179788
3 *14:22 0.055231
4 *14:20 0.0532885
5 *14:18 0.0869726
6 *14:16 0.0944924
7 *14:5 0.00769959
8 *14:16 *659:114 0.000405129
9 *14:16 *661:20 2.04311e-05
*RES
1 *790:refout *14:5 0.506817 
2 *14:5 *14:16 24.0757 
3 *14:16 *14:18 198.275 
4 *14:18 *14:20 3.41 
5 *14:20 *14:22 115.457 
6 *14:22 analog_io[21] 3.97598 
*END

*D_NET *15 0.224895
*CONN
*P analog_io[22] I
*I *789:vreflo I *D CF_ADC_SAR12
*CAP
1 analog_io[22] 0.00194247
2 *789:vreflo 0.000196312
3 *15:22 0.000548087
4 *15:16 0.0572323
5 *15:14 0.0568805
6 *15:12 0.0449997
7 *15:10 0.0469421
8 *15:16 *655:19 9.27217e-05
9 *15:16 *657:12 0.0076478
10 *15:16 *691:9 0.0081703
11 *15:22 *659:57 0.000213264
12 *15:22 *659:65 2.92604e-05
13 *789:vinm *789:vreflo 0
14 *13:20 *789:vreflo 0
*RES
1 analog_io[22] *15:10 3.97598 
2 *15:10 *15:12 97.6459 
3 *15:12 *15:14 3.41 
4 *15:14 *15:16 133.899 
5 *15:16 *15:22 4.2739 
6 *15:22 *789:vreflo 0.722233 
*END

*D_NET *17 0.0515693
*CONN
*P analog_io[24] I
*I *791:dft_curr_in I *D CF_BGR
*CAP
1 analog_io[24] 0.000273742
2 *791:dft_curr_in 0.000130788
3 *17:20 0.00536209
4 *17:12 0.0153588
5 *17:10 0.0104012
6 *17:20 *659:28 7.62761e-06
7 *9:12 *17:12 0.0200351
*RES
1 analog_io[24] *17:10 3.81062 
2 *17:10 *17:12 321.304 
3 *17:12 *17:20 14.4886 
4 *17:20 *791:dft_curr_in 5.79393 
*END

*D_NET *18 0.20159
*CONN
*P analog_io[25] I
*I *790:vdda I *D CF_ADC_SAR12_sar_refs
*I *789:vdda I *D CF_ADC_SAR12
*CAP
1 analog_io[25] 0.00315463
2 *790:vdda 0
3 *789:vdda 0.000145791
4 *18:67 0.0147822
5 *18:65 0.0257899
6 *18:61 0.0165166
7 *18:46 0.00557788
8 *18:32 0.000408612
9 *18:30 0.00986111
10 *18:26 0.0235857
11 *18:12 0.0231646
12 *18:10 0.0122629
13 *18:26 *23:20 0.00715806
14 *18:26 *26:18 0.00170496
15 *18:26 *650:13 0.000618171
16 *18:26 *764:15 0
17 *18:30 *23:20 0.0109865
18 *18:30 *650:13 4.44804e-05
19 *18:30 *673:27 0.00414521
20 *18:61 *789:sample_width[4] 0.00385645
21 *18:61 *658:9 0.00385645
22 *18:61 *703:9 0.00189638
23 *18:61 *716:9 0.00144469
24 *18:65 *789:sample_width[7] 0
25 *18:67 *20:24 0.00318586
26 *2:22 *18:30 0.00652951
27 *2:36 *18:26 7.50988e-05
28 *5:10 *18:30 0.0202202
29 *5:24 *18:26 0.000582483
30 *5:24 *18:30 3.54531e-05
*RES
1 analog_io[25] *18:10 9.96538 
2 *18:10 *18:12 187.125 
3 *18:12 *18:26 36.7364 
4 *18:26 *18:30 47.4949 
5 *18:30 *18:32 5.74107 
6 *18:32 *789:vdda 1.73214 
7 *789:vdda *18:46 1.73214 
8 *18:46 *18:61 31.0319 
9 *18:61 *18:65 26.4154 
10 *18:65 *18:67 32.2353 
11 *18:67 *790:vdda 3.41 
*END

*D_NET *19 0.222579
*CONN
*P analog_io[26] I
*I *790:vssa I *D CF_ADC_SAR12_sar_refs
*I *790:vssa_shield I *D CF_ADC_SAR12_sar_refs
*I *789:vssa I *D CF_ADC_SAR12
*CAP
1 analog_io[26] 0.0186051
2 *790:vssa 7.1209e-05
3 *790:vssa_shield 0.000151216
4 *789:vssa 0.00361355
5 *19:89 0.00392339
6 *19:77 0.0302272
7 *19:75 0.0264822
8 *19:70 0.000179489
9 *19:54 0.00018327
10 *19:50 0.0218652
11 *19:30 0.0405542
12 *19:24 0.0335195
13 *19:18 0.0369448
14 *789:vssa *776:11 0
15 *789:vssa *776:19 0.00136959
16 *789:vssa *787:17 0
17 *789:vssa *787:35 0
18 *790:vssa_shield *790:S_LV[5] 8.80366e-05
19 *19:18 *759:15 0.00373103
20 *19:24 *763:17 0
21 *19:24 *769:25 0
22 *19:30 *776:19 4.41007e-05
23 *19:50 *790:S_LV[7] 0
24 *19:50 *790:S_LV[5] 0.00058332
25 *19:75 *790:dft_comp_en 0.000237142
26 *4:34 *19:18 0.000205114
27 *11:18 *19:18 0
28 *11:26 *19:24 0
*RES
1 analog_io[26] *19:18 48.8481 
2 *19:18 *19:24 47.654 
3 *19:24 *19:30 32.9708 
4 *19:30 *789:vssa 9.83195 
5 *19:30 *19:50 47.4949 
6 *19:50 *19:54 5.20464 
7 *19:54 *790:vssa_shield 2.375 
8 *790:vssa_shield *19:70 0.25145 
9 *19:70 *19:75 0.256262 
10 *19:75 *19:77 55.5383 
11 *19:77 *19:89 19.6431 
12 *19:89 *790:vssa 1.70536 
*END

*D_NET *20 0.15036
*CONN
*P analog_io[27] I
*I *789:VPUMP I *D CF_ADC_SAR12
*I *790:VPUMP I *D CF_ADC_SAR12_sar_refs
*CAP
1 analog_io[27] 0.00190373
2 *789:VPUMP 0
3 *790:VPUMP 0
4 *20:38 0.0141184
5 *20:24 0.0051315
6 *20:20 0.0264843
7 *20:14 0.0354712
8 *20:12 0.0308275
9 *20:10 0.0327312
10 *20:20 *671:19 0
11 *20:20 *776:21 0
12 *20:24 *790:dft_comp_en 0.000430407
13 *20:38 *671:19 0
14 *20:38 *776:21 0
15 *3:30 *20:12 7.57779e-05
16 *18:67 *20:24 0.00318586
*RES
1 analog_io[27] *20:10 3.97598 
2 *20:10 *20:12 66.1424 
3 *20:12 *20:14 3.41 
4 *20:14 *20:20 49.2551 
5 *20:20 *20:24 17.4585 
6 *20:24 *790:VPUMP 3.41 
7 *20:14 *20:38 32.204 
8 *20:38 *789:VPUMP 3.41 
*END

*D_NET *22 0.431316
*CONN
*P analog_io[2] I
*I *792:vinn_p I *D CF_BUF_HIZ
*CAP
1 analog_io[2] 0.000106338
2 *792:vinn_p 0
3 *22:32 0.00966794
4 *22:20 0.0145965
5 *22:14 0.11666
6 *22:12 0.111732
7 *22:10 0.0140856
8 *22:8 0.0141919
9 *22:10 *24:10 0.0420739
10 *22:10 *26:14 0.000167233
11 *22:14 *791:trimTC[4] 0.00100039
12 *22:14 *793:pd 0.000197485
13 *22:14 *793:boost 0.000575021
14 *22:14 *24:14 0
15 *22:14 *24:18 0
16 *22:14 *25:16 0.0083912
17 *22:14 *650:13 0.0160027
18 *22:14 *670:19 0.000241856
19 *22:14 *753:23 0.00292637
20 *22:20 *25:16 0.00776007
21 *22:20 *650:13 0.0119264
22 *22:32 *792:tp 1.54201e-05
23 *22:32 *792:e_n_boost 1.10113e-05
24 *22:32 *23:34 3.80415e-05
25 *22:32 *24:40 0.0107061
26 *22:32 *25:28 3.10433e-05
27 *22:32 *26:42 0.0010288
28 *22:32 *721:35 2.93046e-05
29 *2:22 *22:14 0.0185907
30 *4:18 *22:14 0
31 *7:12 *22:14 0.0014246
32 *12:10 *22:10 0.0271381
*RES
1 analog_io[2] *22:8 3.61367 
2 *22:8 *22:10 681.339 
3 *22:10 *22:12 3.41 
4 *22:12 *22:14 279.28 
5 *22:14 *22:20 26.2296 
6 *22:20 *22:32 36.8996 
7 *22:32 *792:vinn_p 4.5 
*END

*D_NET *23 0.43303
*CONN
*P analog_io[3] I
*I *792:vinp_n I *D CF_BUF_HIZ
*CAP
1 analog_io[3] 0.122691
2 *792:vinp_n 7.08037e-05
3 *23:34 0.00902594
4 *23:20 0.0182959
5 *23:10 0.0393432
6 *23:8 0.0300024
7 *23:6 0.122691
8 *792:vinp_n *792:vinn_n 4.79835e-05
9 *792:vinp_n *24:40 4.65047e-06
10 *792:vinp_n *26:42 3.54133e-06
11 *23:10 *29:14 0.0464614
12 *23:10 *673:27 6.32918e-06
13 *23:20 *650:13 0.0158688
14 *23:34 *792:clk2_boost 6.44469e-06
15 *23:34 *792:clk1_boostr 1.84993e-05
16 *23:34 *792:vinn_n 4.09922e-05
17 *23:34 *25:28 0.0101931
18 *23:34 *732:17 7.67776e-05
19 *12:48 *792:vinp_n 0
20 *18:26 *23:20 0.00715806
21 *18:30 *23:20 0.0109865
22 *22:32 *23:34 3.80415e-05
*RES
1 analog_io[3] *23:6 265.821 
2 *23:6 *23:8 3.41 
3 *23:8 *23:10 921.161 
4 *23:10 *23:20 44.8464 
5 *23:20 *23:34 39.19 
6 *23:34 *792:vinp_n 1.84375 
*END

*D_NET *24 0.528111
*CONN
*P analog_io[4] I
*I *792:vinn_n I *D CF_BUF_HIZ
*CAP
1 analog_io[4] 5.24638e-05
2 *792:vinn_n 3.57347e-05
3 *24:40 0.0104399
4 *24:18 0.0534131
5 *24:16 0.0430603
6 *24:14 0.041073
7 *24:12 0.0410217
8 *24:10 0.0247032
9 *24:8 0.0247556
10 *24:10 *26:14 0.0716036
11 *24:18 *25:16 0
12 *24:40 *792:tp 0.000366724
13 *24:40 *792:clk2_boost 0.000220804
14 *24:40 *792:clk1_boostr 1.50208e-05
15 *24:40 *792:e_na_boost 5.8203e-05
16 *24:40 *792:e_n_boost 8.21311e-05
17 *24:40 *25:16 0
18 *24:40 *743:37 2.2776e-05
19 *792:vinp_n *792:vinn_n 4.79835e-05
20 *792:vinp_n *24:40 4.65047e-06
21 *3:10 *24:14 0.00203222
22 *3:10 *24:18 0.0501144
23 *3:24 *24:18 0.0113299
24 *4:18 *24:18 0.069728
25 *7:12 *24:18 0.000104312
26 *12:14 *24:14 0.0295558
27 *12:32 *24:18 0.00142531
28 *12:48 *792:vinn_n 1.26495e-05
29 *12:48 *24:40 1.01613e-05
30 *22:10 *24:10 0.0420739
31 *22:14 *24:14 0
32 *22:14 *24:18 0
33 *22:32 *24:40 0.0107061
34 *23:34 *792:vinn_n 4.09922e-05
*RES
1 analog_io[4] *24:8 3.51071 
2 *24:8 *24:10 1149.45 
3 *24:10 *24:12 3.41 
4 *24:12 *24:14 117.233 
5 *24:14 *24:16 0.123095 
6 *24:16 *24:18 183.817 
7 *24:18 *24:40 48.7547 
8 *24:40 *792:vinn_n 1.30357 
*END

*D_NET *25 0.475352
*CONN
*P analog_io[5] I
*I *792:vinp_na I *D CF_BUF_HIZ
*CAP
1 analog_io[5] 0.129908
2 *792:vinp_na 0
3 *25:28 0.00906548
4 *25:16 0.0190896
5 *25:10 0.0762385
6 *25:8 0.0662143
7 *25:6 0.129908
8 *25:16 *650:13 0.000316735
9 *1:10 *25:10 0.00528567
10 *7:12 *25:16 0.0129505
11 *22:14 *25:16 0.0083912
12 *22:20 *25:16 0.00776007
13 *22:32 *25:28 3.10433e-05
14 *23:34 *25:28 0.0101931
15 *24:18 *25:16 0
16 *24:40 *25:16 0
*RES
1 analog_io[5] *25:6 264.379 
2 *25:6 *25:8 3.41 
3 *25:8 *25:10 1391.7 
4 *25:10 *25:16 46.3235 
5 *25:16 *25:28 35.5292 
6 *25:28 *792:vinp_na 4.5 
*END

*D_NET *26 0.502482
*CONN
*P analog_io[6] I
*I *792:vinn_na I *D CF_BUF_HIZ
*CAP
1 analog_io[6] 0.00182156
2 *792:vinn_na 4.55923e-05
3 *26:42 0.00990679
4 *26:22 0.0151669
5 *26:20 0.00530572
6 *26:18 0.116795
7 *26:16 0.116795
8 *26:14 0.0579353
9 *26:12 0.0597569
10 *26:18 *749:23 0
11 *26:42 *792:clk1_boostr 9.41973e-06
12 *26:42 *721:35 0.00244422
13 *26:42 *766:25 0
14 *26:42 *772:21 0.000402095
15 *26:42 *781:34 0
16 *792:vinp_n *26:42 3.54133e-06
17 *792:vinp_p *792:vinn_na 6.68687e-05
18 *3:30 *26:42 0
19 *5:10 *26:18 0.038574
20 *12:44 *26:42 0.00285543
21 *12:48 *26:42 9.30948e-05
22 *18:26 *26:18 0.00170496
23 *22:10 *26:14 0.000167233
24 *22:32 *26:42 0.0010288
25 *24:10 *26:14 0.0716036
*RES
1 analog_io[6] *26:12 39.9235 
2 *26:12 *26:14 1598.9 
3 *26:14 *26:16 4.5 
4 *26:16 *26:18 2328.46 
5 *26:18 *26:20 4.5 
6 *26:20 *26:22 105.009 
7 *26:22 *26:42 46.2028 
8 *26:42 *792:vinn_na 1.11607 
*END

*D_NET *27 0.399437
*CONN
*P analog_io[7] I
*I *793:ch1 I *D CF_REFBUF
*I *793:ch2 I *D CF_REFBUF
*I *793:out O *D CF_REFBUF
*CAP
1 analog_io[7] 0.114769
2 *793:ch1 5.13864e-05
3 *793:ch2 5.09315e-05
4 *793:out 8.22911e-05
5 *27:52 0.114769
6 *27:50 0.0820741
7 *27:31 0.0001867
8 *27:26 0.000203255
9 *27:24 0.000141418
10 *27:20 0.000244127
11 *27:16 0.00227728
12 *27:10 0.0843171
13 *27:5 0.0002696
*RES
1 *793:out *27:5 1.73214 
2 *27:5 *27:10 3.76786 
3 *27:10 *27:16 48.1429 
4 *27:16 *27:20 8.875 
5 *27:20 *27:24 0.428571 
6 *27:24 *27:26 1.35714 
7 *27:26 *27:31 2.58929 
8 *27:31 *793:ch2 5.32143 
9 *27:24 *793:ch1 0.973214 
10 *27:10 *27:50 1690.56 
11 *27:50 *27:52 3.41 
12 *27:52 analog_io[7] 249.143 
*END

*D_NET *28 0.435258
*CONN
*P analog_io[8] I
*I *793:vpwre I *D CF_REFBUF
*I *793:ng I *D CF_REFBUF
*CAP
1 analog_io[8] 0.0922221
2 *793:vpwre 4.16959e-05
3 *793:ng 0.000131059
4 *28:35 0.00394033
5 *28:16 0.00547039
6 *28:14 0.00937012
7 *28:10 0.115996
8 *28:8 0.115864
9 *28:6 0.0922221
*RES
1 analog_io[8] *28:6 1899.81 
2 *28:6 *28:8 3.41 
3 *28:8 *28:10 235.859 
4 *28:10 *28:14 5.96357 
5 *28:14 *28:16 110.17 
6 *28:16 *793:ng 2.67857 
7 *28:14 *28:35 11.6574 
8 *28:35 *793:vpwre 4.07964 
*END

*D_NET *29 0.50383
*CONN
*P analog_io[9] I
*I *792:vbpt I *D CF_BUF_HIZ
*CAP
1 analog_io[9] 9.70749e-05
2 *792:vbpt 0
3 *29:54 0.0190998
4 *29:48 0.0229976
5 *29:38 0.00610529
6 *29:34 0.00466198
7 *29:14 0.0877787
8 *29:12 0.0853242
9 *29:10 0.103907
10 *29:8 0.104004
11 *29:34 *670:21 0.000225681
12 *29:38 *751:19 0
13 *2:16 *29:10 1.24972e-05
14 *3:10 *29:34 6.55549e-06
15 *3:24 *29:34 0.0017192
16 *4:12 *29:10 0.00015359
17 *4:34 *29:54 0
18 *6:10 *29:34 0.00221018
19 *6:10 *29:38 0.00104016
20 *6:18 *29:38 7.62237e-05
21 *6:18 *29:48 0.000763968
22 *7:18 *29:54 0.0133898
23 *8:18 *29:54 1.9531e-05
24 *12:14 *29:34 0.000461765
25 *12:20 *29:34 7.25272e-06
26 *12:22 *29:34 8.38524e-05
27 *12:22 *29:38 6.07538e-05
28 *12:32 *29:34 2.70583e-05
29 *12:32 *29:48 0.00313421
30 *23:10 *29:14 0.0464614
*RES
1 analog_io[9] *29:8 5.29393 
2 *29:8 *29:10 225.358 
3 *29:10 *29:12 3.41 
4 *29:12 *29:14 2063.04 
5 *29:14 *29:34 45.8339 
6 *29:34 *29:38 48.9821 
7 *29:38 *29:48 22.3766 
8 *29:48 *29:54 45.231 
9 *29:54 *792:vbpt 3.41 
*END

*D_NET *528 0.357621
*CONN
*P user_clock2 I
*I *789:refclk I *D CF_ADC_SAR12
*CAP
1 user_clock2 4.32496e-05
2 *789:refclk 0.000480262
3 *528:13 0.0506899
4 *528:11 0.0502096
5 *528:9 0.116534
6 *528:7 0.116577
7 *789:refclk *789:trimunit 0.000592014
8 *789:refclk *789:enable_hv 0.000695217
9 *789:refclk *646:9 0.000722386
10 *789:refclk *648:9 0.000402957
11 *528:13 *671:19 0
12 *528:13 *695:9 0.0206742
*RES
1 user_clock2 *528:7 4.29393 
2 *528:7 *528:9 354.147 
3 *528:9 *528:11 3.41 
4 *528:11 *528:13 185.415 
5 *528:13 *789:refclk 10.3472 
*END

*D_NET *540 0.0123888
*CONN
*P wb_clk_i I
*I *788:wb_clk_i I *D afe_wb
*CAP
1 wb_clk_i 0.0015409
2 *788:wb_clk_i 0.00154501
3 *540:11 0.00422034
4 *540:9 0.00421623
5 *788:wb_clk_i *788:wb_rst_i 0.000341846
6 *788:wb_clk_i *575:11 0.000524484
7 *788:wb_clk_i *644:11 0
*RES
1 wb_clk_i *540:9 31.8482 
2 *540:9 *540:11 55.2321 
3 *540:11 *788:wb_clk_i 26.8842 
*END

*D_NET *541 0.0124803
*CONN
*P wb_rst_i I
*I *788:wb_rst_i I *D afe_wb
*CAP
1 wb_rst_i 0.00154187
2 *788:wb_rst_i 0.00138932
3 *541:11 0.00429125
4 *541:9 0.0044438
5 *788:wb_rst_i *542:11 0
6 *788:wb_rst_i *644:11 0.000472225
7 *788:wb_clk_i *788:wb_rst_i 0.000341846
*RES
1 wb_rst_i *541:9 31.8482 
2 *541:9 *541:11 57.6607 
3 *541:11 *788:wb_rst_i 24.1674 
*END

*D_NET *542 0.0120394
*CONN
*P wbs_ack_o O
*I *788:wbs_ack_o O *D afe_wb
*CAP
1 wbs_ack_o 0.00153508
2 *788:wbs_ack_o 0.00100285
3 *542:13 0.00487315
4 *542:11 0.00434092
5 *542:11 *788:wbs_cyc_i 0
6 *542:11 *788:wbs_stb_i 0.00028736
7 *542:11 *645:7 0
8 *788:wb_rst_i *542:11 0
*RES
1 *788:wbs_ack_o *542:11 12.8785 
2 *542:11 *542:13 68.5893 
3 *542:13 wbs_ack_o 32.0982 
*END

*D_NET *543 0.0104263
*CONN
*P wbs_adr_i[0] I
*I *788:wbs_adr_i[0] I *D afe_wb
*CAP
1 wbs_adr_i[0] 0.00169555
2 *788:wbs_adr_i[0] 0.000730552
3 *543:19 0.00351577
4 *543:17 0.00448076
5 *788:wbs_adr_i[0] *788:wbs_dat_i[0] 0
6 *543:17 *576:9 0
7 *543:19 *788:wbs_dat_i[0] 0
8 *543:19 *576:9 3.67279e-06
*RES
1 wbs_adr_i[0] *543:17 39.0762 
2 *543:17 *543:19 57.6607 
3 *543:19 *788:wbs_adr_i[0] 15.1696 
*END

*D_NET *544 0.018962
*CONN
*P wbs_adr_i[10] I
*I *788:wbs_adr_i[10] I *D afe_wb
*CAP
1 wbs_adr_i[10] 0.00284943
2 *788:wbs_adr_i[10] 0.00142251
3 *544:13 0.005066
4 *544:11 0.00649292
5 *788:wbs_adr_i[10] *788:wbs_dat_i[10] 0
6 *788:wbs_adr_i[10] *571:11 0.000158197
7 *788:wbs_adr_i[10] *639:5 0
8 *544:11 *578:13 0.000613599
9 *544:11 *580:13 0.000392425
10 *544:11 *581:11 0.00019056
11 *544:11 *613:13 0.00177641
12 *544:13 *788:wbs_dat_i[10] 0
13 *544:13 *571:9 0
14 *544:13 *571:11 0
15 *544:13 *604:9 0
*RES
1 wbs_adr_i[10] *544:11 19.1662 
2 *544:11 *544:13 73.75 
3 *544:13 *788:wbs_adr_i[10] 29.9911 
*END

*D_NET *545 0.0224265
*CONN
*P wbs_adr_i[11] I
*I *788:wbs_adr_i[11] I *D afe_wb
*CAP
1 wbs_adr_i[11] 0.00164431
2 *788:wbs_adr_i[11] 0.00647403
3 *545:13 0.00832429
4 *545:9 0.00349457
5 *788:wbs_adr_i[11] *788:wbs_adr_i[7] 0
6 *788:wbs_adr_i[11] *788:wbs_dat_i[11] 0
7 *788:wbs_adr_i[11] *609:5 0
8 *788:wbs_adr_i[11] *636:15 0.000547735
9 *545:13 *788:wbs_adr_i[18] 0.00194153
10 *545:13 *788:wbs_dat_i[18] 0
11 *545:13 *616:5 0
*RES
1 wbs_adr_i[11] *545:9 31.8482 
2 *545:9 *545:13 49.535 
3 *545:13 *788:wbs_adr_i[11] 41.6618 
*END

*D_NET *546 0.0271826
*CONN
*P wbs_adr_i[12] I
*I *788:wbs_adr_i[12] I *D afe_wb
*CAP
1 wbs_adr_i[12] 0.00257663
2 *788:wbs_adr_i[12] 0.00471103
3 *546:13 0.00728766
4 *788:wbs_adr_i[12] *788:wbs_dat_i[12] 0
5 *788:wbs_adr_i[12] *605:13 0.000103722
6 *788:wbs_adr_i[12] *610:5 0
7 *546:13 wbs_dat_o[11] 0.00757554
8 *546:13 *547:13 0
9 *546:13 *549:13 0.00492804
10 *546:13 *578:13 0
11 *546:13 *582:13 0
*RES
1 wbs_adr_i[12] *546:13 28.4723 
2 *546:13 *788:wbs_adr_i[12] 94.1696 
*END

*D_NET *547 0.0252648
*CONN
*P wbs_adr_i[13] I
*I *788:wbs_adr_i[13] I *D afe_wb
*CAP
1 wbs_adr_i[13] 0.00345451
2 *788:wbs_adr_i[13] 0.00457788
3 *547:13 0.00803239
4 *788:wbs_adr_i[13] *788:wbs_dat_i[13] 0
5 *788:wbs_adr_i[13] *573:13 0.00152597
6 *788:wbs_adr_i[13] *611:7 0
7 *547:13 *549:13 0
8 *547:13 *578:13 0.00617118
9 *547:13 *580:13 0.00150287
10 *546:13 *547:13 0
*RES
1 wbs_adr_i[13] *547:13 24.0169 
2 *547:13 *788:wbs_adr_i[13] 99.6339 
*END

*D_NET *548 0.0254874
*CONN
*P wbs_adr_i[14] I
*I *788:wbs_adr_i[14] I *D afe_wb
*CAP
1 wbs_adr_i[14] 0.0012291
2 *788:wbs_adr_i[14] 0.00336587
3 *548:13 0.00726967
4 *548:9 0.0051329
5 *788:wbs_adr_i[14] wbs_dat_o[8] 0.00027438
6 *788:wbs_adr_i[14] *788:wbs_dat_i[14] 0
7 *788:wbs_adr_i[14] *612:5 0
8 *548:9 wbs_dat_o[13] 0
9 *548:9 *788:wbs_adr_i[23] 0
10 *548:9 *788:wbs_dat_i[22] 0
11 *548:9 *622:5 0.00243464
12 *548:13 *550:11 0
13 *548:13 *577:13 0
14 *548:13 *612:11 0.00472079
15 *548:13 *621:11 0.00106001
*RES
1 wbs_adr_i[14] *548:9 37.4189 
2 *548:9 *548:13 18.3748 
3 *548:13 *788:wbs_adr_i[14] 69.2768 
*END

*D_NET *549 0.0259765
*CONN
*P wbs_adr_i[15] I
*I *788:wbs_adr_i[15] I *D afe_wb
*CAP
1 wbs_adr_i[15] 0.00446849
2 *788:wbs_adr_i[15] 0.00457921
3 *549:13 0.0090477
4 *788:wbs_adr_i[15] *788:wbs_dat_i[15] 0
5 *788:wbs_adr_i[15] *574:9 0
6 *788:wbs_adr_i[15] *574:13 0
7 *788:wbs_adr_i[15] *607:13 0.00022738
8 *788:wbs_adr_i[15] *613:5 0
9 *549:13 wbs_dat_o[20] 7.77103e-05
10 *549:13 wbs_dat_o[22] 0
11 *549:13 *556:13 0.000108862
12 *549:13 *557:13 0.000174675
13 *549:13 *580:13 0
14 *549:13 *588:13 0
15 *549:13 *589:13 0.000273039
16 *549:13 *590:13 0.00209138
17 *546:13 *549:13 0.00492804
18 *547:13 *549:13 0
*RES
1 wbs_adr_i[15] *549:13 31.3027 
2 *549:13 *788:wbs_adr_i[15] 94.7768 
*END

*D_NET *550 0.0300057
*CONN
*P wbs_adr_i[16] I
*I *788:wbs_adr_i[16] I *D afe_wb
*CAP
1 wbs_adr_i[16] 0.00565193
2 *788:wbs_adr_i[16] 0.003674
3 *550:13 0.003674
4 *550:11 0.00565193
5 *788:wbs_adr_i[16] *788:wbs_dat_i[16] 0
6 *788:wbs_adr_i[16] *614:5 0
7 *550:11 *577:13 0.000798871
8 *550:11 *583:11 0.010555
9 *550:11 *621:11 0
10 *550:11 *623:11 0
11 *548:13 *550:11 0
*RES
1 wbs_adr_i[16] *550:11 48.6203 
2 *550:11 *550:13 3.41 
3 *550:13 *788:wbs_adr_i[16] 74.7411 
*END

*D_NET *551 0.0276688
*CONN
*P wbs_adr_i[17] I
*I *788:wbs_adr_i[17] I *D afe_wb
*CAP
1 wbs_adr_i[17] 0.00405398
2 *788:wbs_adr_i[17] 0.00521422
3 *551:11 0.0092682
4 *788:wbs_adr_i[17] wbs_dat_o[10] 0
5 *788:wbs_adr_i[17] *788:wbs_dat_i[17] 0
6 *788:wbs_adr_i[17] *577:13 0
7 *788:wbs_adr_i[17] *615:5 0
8 *551:11 wbs_dat_o[24] 0.000869519
9 *551:11 wbs_dat_o[26] 0.000534987
10 *551:11 *558:13 0.000278514
11 *551:11 *613:13 0.00744935
*RES
1 wbs_adr_i[17] *551:11 26.2504 
2 *551:11 *788:wbs_adr_i[17] 102.67 
*END

*D_NET *552 0.0313953
*CONN
*P wbs_adr_i[18] I
*I *788:wbs_adr_i[18] I *D afe_wb
*CAP
1 wbs_adr_i[18] 4.32496e-05
2 *788:wbs_adr_i[18] 0.0019942
3 *552:13 0.00654557
4 *552:7 0.0070663
5 *552:5 0.00255818
6 *788:wbs_adr_i[18] *788:wbs_dat_i[18] 0
7 *788:wbs_adr_i[18] *616:5 0
8 *552:7 *788:wbs_adr_i[29] 0.000399122
9 *552:7 *628:11 0
10 *552:13 *560:13 0
11 *552:13 *584:13 0
12 *552:13 *586:13 0.0108471
13 *552:13 *594:13 0
14 *545:13 *788:wbs_adr_i[18] 0.00194153
*RES
1 wbs_adr_i[18] *552:5 0.883929 
2 *552:5 *552:7 51.7321 
3 *552:7 *552:13 26.1088 
4 *552:13 *788:wbs_adr_i[18] 49.8482 
*END

*D_NET *553 0.0328089
*CONN
*P wbs_adr_i[19] I
*I *788:wbs_adr_i[19] I *D afe_wb
*CAP
1 wbs_adr_i[19] 0.00599389
2 *788:wbs_adr_i[19] 0.00411239
3 *553:13 0.0101063
4 *788:wbs_adr_i[19] *788:wbs_dat_i[19] 0
5 *788:wbs_adr_i[19] *617:5 0
6 *553:13 wbs_dat_o[18] 0.012298
7 *553:13 wbs_dat_o[19] 0
8 *553:13 *562:13 0
9 *553:13 *579:11 0.000298256
10 *553:13 *599:15 0
*RES
1 wbs_adr_i[19] *553:13 48.8397 
2 *553:13 *788:wbs_adr_i[19] 81.4196 
*END

*D_NET *554 0.0101975
*CONN
*P wbs_adr_i[1] I
*I *788:wbs_adr_i[1] I *D afe_wb
*CAP
1 wbs_adr_i[1] 4.32496e-05
2 *788:wbs_adr_i[1] 0.00151428
3 *554:7 0.00505552
4 *554:5 0.00358449
5 *788:wbs_adr_i[1] *788:wbs_dat_i[1] 0
*RES
1 wbs_adr_i[1] *554:5 0.883929 
2 *554:5 *554:7 73.1429 
3 *554:7 *788:wbs_adr_i[1] 31.3482 
*END

*D_NET *555 0.0393011
*CONN
*P wbs_adr_i[20] I
*I *788:wbs_adr_i[20] I *D afe_wb
*CAP
1 wbs_adr_i[20] 0.00430351
2 *788:wbs_adr_i[20] 0.00425599
3 *555:13 0.0085595
4 *788:wbs_adr_i[20] *788:wbs_dat_i[20] 0
5 *788:wbs_adr_i[20] *579:9 0.000486656
6 *788:wbs_adr_i[20] *618:5 0
7 *555:13 wbs_dat_o[19] 0.0126674
8 *555:13 *582:13 0.00518165
9 *555:13 *588:13 0
10 *555:13 *596:11 0.00384638
*RES
1 wbs_adr_i[20] *555:13 43.5106 
2 *555:13 *788:wbs_adr_i[20] 87.4911 
*END

*D_NET *556 0.0430138
*CONN
*P wbs_adr_i[21] I
*I *788:wbs_adr_i[21] I *D afe_wb
*CAP
1 wbs_adr_i[21] 0.00295369
2 *788:wbs_adr_i[21] 0.00462499
3 *556:13 0.00757867
4 *788:wbs_adr_i[21] *788:wbs_dat_i[21] 0
5 *788:wbs_adr_i[21] *620:5 0
6 *556:13 wbs_dat_o[20] 0.0138987
7 *556:13 *589:13 0.0138489
8 *556:13 *596:11 0
9 *549:13 *556:13 0.000108862
*RES
1 wbs_adr_i[21] *556:13 40.0731 
2 *556:13 *788:wbs_adr_i[21] 92.3482 
*END

*D_NET *557 0.0443493
*CONN
*P wbs_adr_i[22] I
*I *788:wbs_adr_i[22] I *D afe_wb
*CAP
1 wbs_adr_i[22] 0.00320046
2 *788:wbs_adr_i[22] 0.00479766
3 *557:13 0.00799812
4 *788:wbs_adr_i[22] wbs_dat_o[13] 0
5 *788:wbs_adr_i[22] *788:wbs_dat_i[22] 0
6 *788:wbs_adr_i[22] *621:5 0
7 *557:13 *589:13 0.0136728
8 *557:13 *590:13 0.0145055
9 *557:13 *596:11 0
10 *549:13 *557:13 0.000174675
*RES
1 wbs_adr_i[22] *557:13 39.8677 
2 *557:13 *788:wbs_adr_i[22] 93.5625 
*END

*D_NET *558 0.0457082
*CONN
*P wbs_adr_i[23] I
*I *788:wbs_adr_i[23] I *D afe_wb
*CAP
1 wbs_adr_i[23] 0.00286716
2 *788:wbs_adr_i[23] 0.00504781
3 *558:13 0.00791497
4 *788:wbs_adr_i[23] *788:wbs_dat_i[23] 0
5 *788:wbs_adr_i[23] *622:5 0
6 *558:13 wbs_dat_o[22] 0.0150288
7 *558:13 wbs_dat_o[24] 0.0140145
8 *558:13 *581:11 0.000153868
9 *558:13 *599:13 0.000210755
10 *558:13 *613:13 0.000191834
11 *548:9 *788:wbs_adr_i[23] 0
12 *551:11 *558:13 0.000278514
*RES
1 wbs_adr_i[23] *558:13 34.4883 
2 *558:13 *788:wbs_adr_i[23] 100.241 
*END

*D_NET *559 0.0344095
*CONN
*P wbs_adr_i[24] I
*I *788:wbs_adr_i[24] I *D afe_wb
*CAP
1 wbs_adr_i[24] 0.00070325
2 *788:wbs_adr_i[24] 0.000963015
3 *559:21 0.0088611
4 *559:11 0.010117
5 *559:9 0.00292216
6 *788:wbs_adr_i[24] *788:wbs_dat_i[24] 0
7 *559:9 *592:7 0
8 *559:9 *600:15 0
9 *559:11 *592:7 0
10 *559:11 *600:15 0.00190653
11 *559:21 *563:17 0
12 *559:21 *567:17 0.00850957
13 *559:21 *600:15 0.000426869
*RES
1 wbs_adr_i[24] *559:9 12.9554 
2 *559:9 *559:11 61.7321 
3 *559:11 *559:21 42.737 
4 *559:21 *788:wbs_adr_i[24] 19.4911 
*END

*D_NET *560 0.0384604
*CONN
*P wbs_adr_i[25] I
*I *788:wbs_adr_i[25] I *D afe_wb
*CAP
1 wbs_adr_i[25] 6.25633e-05
2 *788:wbs_adr_i[25] 0.00216535
3 *560:13 0.00822136
4 *560:7 0.00896364
5 *560:5 0.00297019
6 *788:wbs_adr_i[25] *788:wbs_dat_i[25] 0
7 *788:wbs_adr_i[25] *624:5 0
8 *560:7 wbs_dat_o[29] 0.000546721
9 *560:7 *627:13 0
10 *560:13 *593:17 0
11 *560:13 *594:13 0.0155306
12 *552:13 *560:13 0
*RES
1 wbs_adr_i[25] *560:5 0.883929 
2 *560:5 *560:7 57.1964 
3 *560:7 *560:13 33.4596 
4 *560:13 *788:wbs_adr_i[25] 44.3839 
*END

*D_NET *561 0.0290658
*CONN
*P wbs_adr_i[26] I
*I *788:wbs_adr_i[26] I *D afe_wb
*CAP
1 wbs_adr_i[26] 0.00159798
2 *788:wbs_adr_i[26] 0.00128609
3 *561:17 0.0106713
4 *561:13 0.0116488
5 *561:9 0.00386157
6 *788:wbs_adr_i[26] *788:wbs_dat_i[26] 0
7 *788:wbs_adr_i[26] *625:11 0
8 *561:17 *567:17 0
9 *561:17 *591:13 0
*RES
1 wbs_adr_i[26] *561:9 31.2411 
2 *561:9 *561:13 49.535 
3 *561:13 *561:17 31.2027 
4 *561:17 *788:wbs_adr_i[26] 26.1696 
*END

*D_NET *562 0.0309416
*CONN
*P wbs_adr_i[27] I
*I *788:wbs_adr_i[27] I *D afe_wb
*CAP
1 wbs_adr_i[27] 0.00142629
2 *788:wbs_adr_i[27] 0.00377382
3 *562:13 0.0140445
4 *562:9 0.011697
5 *788:wbs_adr_i[27] *788:wbs_dat_i[27] 0
6 *788:wbs_adr_i[27] *626:5 0
7 *562:13 wbs_dat_o[18] 0
8 *562:13 *623:11 0
9 *553:13 *562:13 0
*RES
1 wbs_adr_i[27] *562:9 30.9368 
2 *562:9 *562:13 32.0675 
3 *562:13 *788:wbs_adr_i[27] 75.3482 
*END

*D_NET *563 0.0310746
*CONN
*P wbs_adr_i[28] I
*I *788:wbs_adr_i[28] I *D afe_wb
*CAP
1 wbs_adr_i[28] 0.00156973
2 *788:wbs_adr_i[28] 0.000707837
3 *563:17 0.0111176
4 *563:11 0.0132597
5 *563:9 0.0044197
6 *788:wbs_adr_i[28] *788:wbs_dat_i[28] 0
7 *788:wbs_adr_i[28] *627:11 0
8 *563:9 wbs_dat_o[27] 0
9 *563:17 *567:17 0
10 *559:21 *563:17 0
*RES
1 wbs_adr_i[28] *563:9 31.2411 
2 *563:9 *563:11 58.2679 
3 *563:11 *563:17 36.7026 
4 *563:17 *788:wbs_adr_i[28] 14.0268 
*END

*D_NET *564 0.0313187
*CONN
*P wbs_adr_i[29] I
*I *788:wbs_adr_i[29] I *D afe_wb
*CAP
1 wbs_adr_i[29] 0.00201741
2 *788:wbs_adr_i[29] 0.00300854
3 *564:13 0.0134424
4 *564:9 0.0124512
5 *788:wbs_adr_i[29] *788:wbs_dat_i[29] 0
6 *788:wbs_adr_i[29] *628:9 0
7 *788:wbs_adr_i[29] *628:11 0
8 *564:13 *566:17 0
9 *564:13 *585:17 0
10 *564:13 *621:11 0
11 *564:13 *623:11 0
12 *552:7 *788:wbs_adr_i[29] 0.000399122
*RES
1 wbs_adr_i[29] *564:9 43.4904 
2 *564:9 *564:13 34.0853 
3 *564:13 *788:wbs_adr_i[29] 63.2054 
*END

*D_NET *565 0.012181
*CONN
*P wbs_adr_i[2] I
*I *788:wbs_adr_i[2] I *D afe_wb
*CAP
1 wbs_adr_i[2] 0.00214741
2 *788:wbs_adr_i[2] 0.00316022
3 *565:13 0.00530763
4 *788:wbs_adr_i[2] *788:wbs_dat_i[2] 0
5 *788:wbs_adr_i[2] *788:wbs_sel_i[1] 0
6 *565:13 *788:wbs_adr_i[3] 0
7 *565:13 *788:wbs_sel_i[2] 0.00156571
8 *565:13 *630:5 0
9 *565:13 *641:11 0
*RES
1 wbs_adr_i[2] *565:13 46.3727 
2 *565:13 *788:wbs_adr_i[2] 65.0268 
*END

*D_NET *566 0.0330287
*CONN
*P wbs_adr_i[30] I
*I *788:wbs_adr_i[30] I *D afe_wb
*CAP
1 wbs_adr_i[30] 0.00235606
2 *788:wbs_adr_i[30] 0.0029666
3 *566:17 0.0141583
4 *566:11 0.0135477
5 *788:wbs_adr_i[30] *599:15 0
6 *566:11 *599:13 0
7 *566:17 *592:13 0
8 *564:13 *566:17 0
*RES
1 wbs_adr_i[30] *566:11 47.4196 
2 *566:11 *566:17 38.7925 
3 *566:17 *788:wbs_adr_i[30] 57.1339 
*END

*D_NET *567 0.0388092
*CONN
*P wbs_adr_i[31] I
*I *788:wbs_adr_i[31] I *D afe_wb
*CAP
1 wbs_adr_i[31] 0.00152898
2 *788:wbs_adr_i[31] 0.00102759
3 *567:17 0.0109691
4 *567:11 0.0124718
5 *567:9 0.00405922
6 *788:wbs_adr_i[31] *788:wbs_dat_i[31] 0
7 *788:wbs_adr_i[31] *631:28 0.000242985
8 *559:21 *567:17 0.00850957
9 *561:17 *567:17 0
10 *563:17 *567:17 0
*RES
1 wbs_adr_i[31] *567:9 31.2411 
2 *567:9 *567:11 52.1964 
3 *567:11 *567:17 39.8735 
4 *567:17 *788:wbs_adr_i[31] 20.0982 
*END

*D_NET *568 0.0126932
*CONN
*P wbs_adr_i[3] I
*I *788:wbs_adr_i[3] I *D afe_wb
*CAP
1 wbs_adr_i[3] 0.00132132
2 *788:wbs_adr_i[3] 0.00502526
3 *568:11 0.00634659
4 *788:wbs_adr_i[3] *788:wbs_dat_i[3] 0
5 *788:wbs_adr_i[3] *788:wbs_sel_i[2] 0
6 *788:wbs_adr_i[3] *598:13 0
7 *568:11 *598:13 0
8 *568:11 *643:13 0
9 *565:13 *788:wbs_adr_i[3] 0
*RES
1 wbs_adr_i[3] *568:11 11.2605 
2 *568:11 *788:wbs_adr_i[3] 101.455 
*END

*D_NET *569 0.0161796
*CONN
*P wbs_adr_i[4] I
*I *788:wbs_adr_i[4] I *D afe_wb
*CAP
1 wbs_adr_i[4] 0.00222078
2 *788:wbs_adr_i[4] 0.00355423
3 *569:17 0.00577501
4 *788:wbs_adr_i[4] *788:wbs_sel_i[3] 0
5 *569:17 wbs_dat_o[4] 0
6 *569:17 *788:wbs_dat_i[4] 0
7 *569:17 *788:wbs_sel_i[3] 0
8 *569:17 *570:13 0.00177733
9 *569:17 *601:13 0
10 *569:17 *642:13 0.000544103
11 *569:17 *643:13 0.00230817
*RES
1 wbs_adr_i[4] *569:17 42.7733 
2 *569:17 *788:wbs_adr_i[4] 72.1696 
*END

*D_NET *570 0.0151647
*CONN
*P wbs_adr_i[5] I
*I *788:wbs_adr_i[5] I *D afe_wb
*CAP
1 wbs_adr_i[5] 0.00189126
2 *788:wbs_adr_i[5] 0.00462407
3 *570:13 0.00651533
4 *788:wbs_adr_i[5] *788:wbs_dat_i[5] 0
5 *788:wbs_adr_i[5] *601:13 0.000356707
6 *788:wbs_adr_i[5] *634:5 0
7 *570:13 wbs_dat_o[4] 0
8 *570:13 *605:13 0
9 *569:17 *570:13 0.00177733
*RES
1 wbs_adr_i[5] *570:13 18.6929 
2 *570:13 *788:wbs_adr_i[5] 96.5982 
*END

*D_NET *571 0.0172851
*CONN
*P wbs_adr_i[6] I
*I *788:wbs_adr_i[6] I *D afe_wb
*CAP
1 wbs_adr_i[6] 0.00155359
2 *788:wbs_adr_i[6] 0.00276339
3 *571:11 0.00500899
4 *571:9 0.00379919
5 *788:wbs_adr_i[6] *788:wbs_adr_i[7] 0
6 *788:wbs_adr_i[6] *788:wbs_dat_i[6] 0.00400177
7 *788:wbs_adr_i[6] *636:15 0
8 *571:9 *639:5 0
9 *571:11 *639:5 0
10 *788:wbs_adr_i[10] *571:11 0.000158197
11 *544:13 *571:9 0
12 *544:13 *571:11 0
*RES
1 wbs_adr_i[6] *571:9 31.2411 
2 *571:9 *571:11 46.7321 
3 *571:11 *788:wbs_adr_i[6] 39.2038 
*END

*D_NET *572 0.0186871
*CONN
*P wbs_adr_i[7] I
*I *788:wbs_adr_i[7] I *D afe_wb
*CAP
1 wbs_adr_i[7] 0.00119215
2 *788:wbs_adr_i[7] 0.0028862
3 *572:11 0.00474652
4 *572:9 0.00305248
5 *788:wbs_adr_i[7] *788:wbs_dat_i[6] 0
6 *788:wbs_adr_i[7] *788:wbs_dat_i[7] 0
7 *788:wbs_adr_i[7] *636:15 0.0043189
8 *572:9 wbs_dat_o[6] 0
9 *572:9 *788:wbs_dat_i[11] 0.000861961
10 *572:9 *610:5 0
11 *572:11 *788:wbs_dat_i[11] 0
12 *572:11 *610:5 0.00162889
13 *788:wbs_adr_i[11] *788:wbs_adr_i[7] 0
14 *788:wbs_adr_i[6] *788:wbs_adr_i[7] 0
*RES
1 wbs_adr_i[7] *572:9 31.2411 
2 *572:9 *572:11 52.1964 
3 *572:11 *788:wbs_adr_i[7] 34.8205 
*END

*D_NET *573 0.019961
*CONN
*P wbs_adr_i[8] I
*I *788:wbs_adr_i[8] I *D afe_wb
*CAP
1 wbs_adr_i[8] 0.00267824
2 *788:wbs_adr_i[8] 0.0039591
3 *573:13 0.00663734
4 *788:wbs_adr_i[8] *788:wbs_dat_i[8] 0
5 *788:wbs_adr_i[8] *637:5 0
6 *573:13 wbs_dat_o[7] 0
7 *573:13 *788:wbs_dat_i[13] 0
8 *573:13 *606:13 0.00516036
9 *788:wbs_adr_i[13] *573:13 0.00152597
*RES
1 wbs_adr_i[8] *573:13 37.9161 
2 *573:13 *788:wbs_adr_i[8] 80.8125 
*END

*D_NET *574 0.0174156
*CONN
*P wbs_adr_i[9] I
*I *788:wbs_adr_i[9] I *D afe_wb
*CAP
1 wbs_adr_i[9] 0.000683958
2 *788:wbs_adr_i[9] 0.00250927
3 *574:17 0.00600532
4 *574:13 0.00518938
5 *574:9 0.0023773
6 *788:wbs_adr_i[9] *788:wbs_dat_i[9] 0
7 *788:wbs_adr_i[9] *638:5 0
8 *574:9 *607:13 0
9 *574:9 *613:13 0
10 *574:13 *613:5 0.000650336
11 *574:13 *613:13 0
12 *574:17 *637:11 0
13 *788:wbs_adr_i[15] *574:9 0
14 *788:wbs_adr_i[15] *574:13 0
*RES
1 wbs_adr_i[9] *574:9 12.9554 
2 *574:9 *574:13 43.1243 
3 *574:13 *574:17 13.4743 
4 *574:17 *788:wbs_adr_i[9] 51.0625 
*END

*D_NET *575 0.0117495
*CONN
*P wbs_cyc_i I
*I *788:wbs_cyc_i I *D afe_wb
*CAP
1 wbs_cyc_i 0.0015409
2 *788:wbs_cyc_i 0.000776685
3 *575:11 0.00407162
4 *575:9 0.00483584
5 *788:wbs_cyc_i *788:wbs_stb_i 0
6 *788:wb_clk_i *575:11 0.000524484
7 *542:11 *788:wbs_cyc_i 0
*RES
1 wbs_cyc_i *575:9 31.8482 
2 *575:9 *575:11 72.2321 
3 *575:11 *788:wbs_cyc_i 8.8128 
*END

*D_NET *576 0.0103674
*CONN
*P wbs_dat_i[0] I
*I *788:wbs_dat_i[0] I *D afe_wb
*CAP
1 wbs_dat_i[0] 0.00162636
2 *788:wbs_dat_i[0] 0.00355374
3 *576:9 0.0051801
4 *788:wbs_dat_i[0] wbs_dat_o[0] 3.4846e-06
5 *576:9 wbs_dat_o[0] 0
6 *788:wbs_adr_i[0] *788:wbs_dat_i[0] 0
7 *543:17 *576:9 0
8 *543:19 *788:wbs_dat_i[0] 0
9 *543:19 *576:9 3.67279e-06
*RES
1 wbs_dat_i[0] *576:9 33.4911 
2 *576:9 *788:wbs_dat_i[0] 72.1696 
*END

*D_NET *577 0.0195768
*CONN
*P wbs_dat_i[10] I
*I *788:wbs_dat_i[10] I *D afe_wb
*CAP
1 wbs_dat_i[10] 0.00536032
2 *788:wbs_dat_i[10] 0.00297326
3 *577:13 0.00833358
4 *788:wbs_dat_i[10] *604:9 0.000167047
5 *788:wbs_dat_i[10] *604:13 0.00144648
6 *788:wbs_dat_i[10] *609:5 0
7 *577:13 *612:11 0
8 *577:13 *615:5 0.000497194
9 *788:wbs_adr_i[10] *788:wbs_dat_i[10] 0
10 *788:wbs_adr_i[17] *577:13 0
11 *544:13 *788:wbs_dat_i[10] 0
12 *548:13 *577:13 0
13 *550:11 *577:13 0.000798871
*RES
1 wbs_dat_i[10] *577:13 47.045 
2 *577:13 *788:wbs_dat_i[10] 74.1339 
*END

*D_NET *578 0.0267643
*CONN
*P wbs_dat_i[11] I
*I *788:wbs_dat_i[11] I *D afe_wb
*CAP
1 wbs_dat_i[11] 0.00208245
2 *788:wbs_dat_i[11] 0.00457658
3 *578:13 0.00665903
4 *788:wbs_dat_i[11] wbs_dat_o[6] 0
5 *788:wbs_dat_i[11] *610:5 0
6 *788:wbs_dat_i[11] *636:15 0
7 *788:wbs_dat_i[11] *636:17 0
8 *578:13 *580:13 0.00579946
9 *788:wbs_adr_i[11] *788:wbs_dat_i[11] 0
10 *544:11 *578:13 0.000613599
11 *546:13 *578:13 0
12 *547:13 *578:13 0.00617118
13 *572:9 *788:wbs_dat_i[11] 0.000861961
14 *572:11 *788:wbs_dat_i[11] 0
*RES
1 wbs_dat_i[11] *578:13 22.237 
2 *578:13 *788:wbs_dat_i[11] 100.241 
*END

*D_NET *579 0.0193302
*CONN
*P wbs_dat_i[12] I
*I *788:wbs_dat_i[12] I *D afe_wb
*CAP
1 wbs_dat_i[12] 0.000979227
2 *788:wbs_dat_i[12] 0.00408219
3 *579:13 0.00408219
4 *579:11 0.00409787
5 *579:9 0.00507709
6 *788:wbs_dat_i[12] wbs_dat_o[7] 0
7 *788:wbs_dat_i[12] *611:7 0
8 *579:9 *788:wbs_dat_i[20] 0
9 *579:9 *618:5 0
10 *579:11 wbs_dat_o[16] 0.000226704
11 *788:wbs_adr_i[12] *788:wbs_dat_i[12] 0
12 *788:wbs_adr_i[20] *579:9 0.000486656
13 *553:13 *579:11 0.000298256
*RES
1 wbs_dat_i[12] *579:9 25.8036 
2 *579:9 *579:11 75.2857 
3 *579:11 *579:13 4.5 
4 *579:13 *788:wbs_dat_i[12] 81.5714 
*END

*D_NET *580 0.0296428
*CONN
*P wbs_dat_i[13] I
*I *788:wbs_dat_i[13] I *D afe_wb
*CAP
1 wbs_dat_i[13] 0.00197328
2 *788:wbs_dat_i[13] 0.0049935
3 *580:13 0.00696678
4 *788:wbs_dat_i[13] *606:13 0
5 *788:wbs_dat_i[13] *612:5 0
6 *580:13 *581:11 0.00801447
7 *788:wbs_adr_i[13] *788:wbs_dat_i[13] 0
8 *544:11 *580:13 0.000392425
9 *547:13 *580:13 0.00150287
10 *549:13 *580:13 0
11 *573:13 *788:wbs_dat_i[13] 0
12 *578:13 *580:13 0.00579946
*RES
1 wbs_dat_i[13] *580:13 23.163 
2 *580:13 *788:wbs_dat_i[13] 100.848 
*END

*D_NET *581 0.0330193
*CONN
*P wbs_dat_i[14] I
*I *788:wbs_dat_i[14] I *D afe_wb
*CAP
1 wbs_dat_i[14] 0.0024655
2 *788:wbs_dat_i[14] 0.00503768
3 *581:11 0.00750319
4 *788:wbs_dat_i[14] wbs_dat_o[8] 0
5 *788:wbs_dat_i[14] *613:5 0
6 *788:wbs_dat_i[14] *613:13 0
7 *581:11 wbs_dat_o[22] 0.00014492
8 *581:11 *613:13 0.00950907
9 *788:wbs_adr_i[14] *788:wbs_dat_i[14] 0
10 *544:11 *581:11 0.00019056
11 *558:13 *581:11 0.000153868
12 *580:13 *581:11 0.00801447
*RES
1 wbs_dat_i[14] *581:11 23.5118 
2 *581:11 *788:wbs_dat_i[14] 101.455 
*END

*D_NET *582 0.0257705
*CONN
*P wbs_dat_i[15] I
*I *788:wbs_dat_i[15] I *D afe_wb
*CAP
1 wbs_dat_i[15] 0.00494308
2 *788:wbs_dat_i[15] 0.00440682
3 *582:13 0.00934991
4 *788:wbs_dat_i[15] *607:13 0
5 *788:wbs_dat_i[15] *614:5 0
6 *582:13 wbs_dat_o[11] 0
7 *582:13 wbs_dat_o[19] 0.000191595
8 *582:13 wbs_dat_o[9] 0.000427012
9 *582:13 *588:13 0.000911745
10 *582:13 *624:5 0.000358648
11 *788:wbs_adr_i[15] *788:wbs_dat_i[15] 0
12 *546:13 *582:13 0
13 *555:13 *582:13 0.00518165
*RES
1 wbs_dat_i[15] *582:13 38.0029 
2 *582:13 *788:wbs_dat_i[15] 88.0982 
*END

*D_NET *583 0.0292004
*CONN
*P wbs_dat_i[16] I
*I *788:wbs_dat_i[16] I *D afe_wb
*CAP
1 wbs_dat_i[16] 0.00561089
2 *788:wbs_dat_i[16] 0.00371185
3 *583:13 0.00371185
4 *583:11 0.00561089
5 *788:wbs_dat_i[16] *615:5 0
6 *583:11 wbs_dat_o[16] 0
7 *583:11 *626:5 0
8 *788:wbs_adr_i[16] *788:wbs_dat_i[16] 0
9 *550:11 *583:11 0.010555
*RES
1 wbs_dat_i[16] *583:11 48.7626 
2 *583:11 *583:13 3.41 
3 *583:13 *788:wbs_dat_i[16] 75.3482 
*END

*D_NET *584 0.0305734
*CONN
*P wbs_dat_i[17] I
*I *788:wbs_dat_i[17] I *D afe_wb
*CAP
1 wbs_dat_i[17] 0.00241925
2 *788:wbs_dat_i[17] 0.00277094
3 *584:13 0.00723394
4 *584:9 0.00688225
5 *788:wbs_dat_i[17] *616:5 0
6 *584:13 *586:13 0
7 *584:13 *616:11 0.011267
8 *788:wbs_adr_i[17] *788:wbs_dat_i[17] 0
9 *552:13 *584:13 0
*RES
1 wbs_dat_i[17] *584:9 49.9546 
2 *584:9 *584:13 21.9781 
3 *584:13 *788:wbs_dat_i[17] 55.9196 
*END

*D_NET *585 0.031436
*CONN
*P wbs_dat_i[18] I
*I *788:wbs_dat_i[18] I *D afe_wb
*CAP
1 wbs_dat_i[18] 0.00248133
2 *788:wbs_dat_i[18] 0.00279499
3 *585:17 0.0076802
4 *585:11 0.00736654
5 *788:wbs_dat_i[18] *617:5 0
6 *585:11 wbs_dat_o[18] 0
7 *585:17 *592:13 0
8 *585:17 *614:11 0
9 *585:17 *616:11 0.011113
10 *788:wbs_adr_i[18] *788:wbs_dat_i[18] 0
11 *545:13 *788:wbs_dat_i[18] 0
12 *564:13 *585:17 0
*RES
1 wbs_dat_i[18] *585:11 46.5982 
2 *585:11 *585:17 26.6853 
3 *585:17 *788:wbs_dat_i[18] 57.1339 
*END

*D_NET *586 0.0361494
*CONN
*P wbs_dat_i[19] I
*I *788:wbs_dat_i[19] I *D afe_wb
*CAP
1 wbs_dat_i[19] 4.32496e-05
2 *788:wbs_dat_i[19] 0.00245986
3 *586:13 0.00607134
4 *586:7 0.00629106
5 *586:5 0.00272284
6 *788:wbs_dat_i[19] *618:5 0
7 *586:13 *592:13 0.00771394
8 *586:13 *594:13 0
9 *788:wbs_adr_i[19] *788:wbs_dat_i[19] 0
10 *552:13 *586:13 0.0108471
11 *584:13 *586:13 0
*RES
1 wbs_dat_i[19] *586:5 0.883929 
2 *586:5 *586:7 51.7321 
3 *586:7 *586:13 27.4781 
4 *586:13 *788:wbs_dat_i[19] 50.4554 
*END

*D_NET *587 0.0111657
*CONN
*P wbs_dat_i[1] I
*I *788:wbs_dat_i[1] I *D afe_wb
*CAP
1 wbs_dat_i[1] 0.00133449
2 *788:wbs_dat_i[1] 0.000988746
3 *587:11 0.00389115
4 *587:9 0.00423689
5 *788:wbs_dat_i[1] *619:5 0
6 *587:9 *619:5 0.000714471
7 *788:wbs_adr_i[1] *788:wbs_dat_i[1] 0
*RES
1 wbs_dat_i[1] *587:9 31.2411 
2 *587:9 *587:11 57.8125 
3 *587:11 *788:wbs_dat_i[1] 28.6607 
*END

*D_NET *588 0.0339438
*CONN
*P wbs_dat_i[20] I
*I *788:wbs_dat_i[20] I *D afe_wb
*CAP
1 wbs_dat_i[20] 0.00470125
2 *788:wbs_dat_i[20] 0.00462408
3 *588:13 0.00932533
4 *788:wbs_dat_i[20] wbs_dat_o[12] 0
5 *788:wbs_dat_i[20] *611:15 0
6 *588:13 wbs_dat_o[20] 0.013513
7 *588:13 *596:11 0.000868436
8 *788:wbs_adr_i[20] *788:wbs_dat_i[20] 0
9 *549:13 *588:13 0
10 *555:13 *588:13 0
11 *579:9 *788:wbs_dat_i[20] 0
12 *582:13 *588:13 0.000911745
*RES
1 wbs_dat_i[20] *588:13 39.8894 
2 *588:13 *788:wbs_dat_i[20] 91.1339 
*END

*D_NET *589 0.0431175
*CONN
*P wbs_dat_i[21] I
*I *788:wbs_dat_i[21] I *D afe_wb
*CAP
1 wbs_dat_i[21] 0.0029985
2 *788:wbs_dat_i[21] 0.00466283
3 *589:13 0.00766134
4 *788:wbs_dat_i[21] *621:5 0
5 *589:13 *596:11 0
6 *788:wbs_adr_i[21] *788:wbs_dat_i[21] 0
7 *549:13 *589:13 0.000273039
8 *556:13 *589:13 0.0138489
9 *557:13 *589:13 0.0136728
*RES
1 wbs_dat_i[21] *589:13 39.7542 
2 *589:13 *788:wbs_dat_i[21] 92.9554 
*END

*D_NET *590 0.0381702
*CONN
*P wbs_dat_i[22] I
*I *788:wbs_dat_i[22] I *D afe_wb
*CAP
1 wbs_dat_i[22] 0.0054216
2 *788:wbs_dat_i[22] 0.00432197
3 *590:13 0.00974357
4 *788:wbs_dat_i[22] wbs_dat_o[13] 0.00208613
5 *788:wbs_dat_i[22] *622:5 0
6 *590:13 wbs_dat_o[22] 0
7 *590:13 *596:11 0
8 *590:13 *599:13 0
9 *788:wbs_adr_i[22] *788:wbs_dat_i[22] 0
10 *548:9 *788:wbs_dat_i[22] 0
11 *549:13 *590:13 0.00209138
12 *557:13 *590:13 0.0145055
*RES
1 wbs_dat_i[22] *590:13 39.2823 
2 *590:13 *788:wbs_dat_i[22] 94.1696 
*END

*D_NET *591 0.0276915
*CONN
*P wbs_dat_i[23] I
*I *788:wbs_dat_i[23] I *D afe_wb
*CAP
1 wbs_dat_i[23] 4.32496e-05
2 *788:wbs_dat_i[23] 0.00156272
3 *591:13 0.0101937
4 *591:7 0.0111956
5 *591:5 0.00260783
6 *788:wbs_dat_i[23] *623:5 0
7 *591:7 wbs_dat_o[23] 0
8 *591:7 *597:15 0.00208838
9 *591:13 *593:17 0
10 *788:wbs_adr_i[23] *788:wbs_dat_i[23] 0
11 *561:17 *591:13 0
*RES
1 wbs_dat_i[23] *591:5 0.883929 
2 *591:5 *591:7 69.3393 
3 *591:7 *591:13 31.73 
4 *591:13 *788:wbs_dat_i[23] 32.2411 
*END

*D_NET *592 0.0329884
*CONN
*P wbs_dat_i[24] I
*I *788:wbs_dat_i[24] I *D afe_wb
*CAP
1 wbs_dat_i[24] 6.25633e-05
2 *788:wbs_dat_i[24] 0.00251086
3 *592:13 0.0100539
4 *592:7 0.0100638
5 *592:5 0.00258335
6 *788:wbs_dat_i[24] *624:5 0
7 *592:7 *625:13 0
8 *592:13 *594:13 0
9 *592:13 *616:11 0
10 *788:wbs_adr_i[24] *788:wbs_dat_i[24] 0
11 *559:9 *592:7 0
12 *559:11 *592:7 0
13 *566:17 *592:13 0
14 *585:17 *592:13 0
15 *586:13 *592:13 0.00771394
*RES
1 wbs_dat_i[24] *592:5 0.883929 
2 *592:5 *592:7 50.5179 
3 *592:7 *592:13 32.7389 
4 *592:13 *788:wbs_dat_i[24] 51.0625 
*END

*D_NET *593 0.0304574
*CONN
*P wbs_dat_i[25] I
*I *788:wbs_dat_i[25] I *D afe_wb
*CAP
1 wbs_dat_i[25] 0.000724125
2 *788:wbs_dat_i[25] 0.00187406
3 *593:17 0.0113737
4 *593:11 0.0120814
5 *593:9 0.00330585
6 *788:wbs_dat_i[25] *625:11 0
7 *593:9 wbs_dat_o[25] 0
8 *593:9 *631:28 0
9 *593:9 *632:23 0.000217431
10 *593:11 *632:23 0.000880833
11 *788:wbs_adr_i[25] *788:wbs_dat_i[25] 0
12 *560:13 *593:17 0
13 *591:13 *593:17 0
*RES
1 wbs_dat_i[25] *593:9 12.9554 
2 *593:9 *593:11 52.4643 
3 *593:11 *593:17 34.0361 
4 *593:17 *788:wbs_dat_i[25] 38.3125 
*END

*D_NET *594 0.0388989
*CONN
*P wbs_dat_i[26] I
*I *788:wbs_dat_i[26] I *D afe_wb
*CAP
1 wbs_dat_i[26] 6.64606e-05
2 *788:wbs_dat_i[26] 0.00223176
3 *594:13 0.00878912
4 *594:7 0.00938594
5 *594:5 0.00289504
6 *788:wbs_dat_i[26] *626:5 0
7 *788:wbs_adr_i[26] *788:wbs_dat_i[26] 0
8 *552:13 *594:13 0
9 *560:13 *594:13 0.0155306
10 *586:13 *594:13 0
11 *592:13 *594:13 0
*RES
1 wbs_dat_i[26] *594:5 0.883929 
2 *594:5 *594:7 56.5893 
3 *594:7 *594:13 34.8289 
4 *594:13 *788:wbs_dat_i[26] 44.9911 
*END

*D_NET *595 0.0496216
*CONN
*P wbs_dat_i[27] I
*I *788:wbs_dat_i[27] I *D afe_wb
*CAP
1 wbs_dat_i[27] 0.00154016
2 *788:wbs_dat_i[27] 0.00229836
3 *595:15 0.0057055
4 *595:13 0.0049473
5 *788:wbs_dat_i[27] *788:wbs_dat_i[29] 0.0090393
6 *788:wbs_dat_i[27] *625:11 0.000701618
7 *788:wbs_dat_i[27] *627:11 0.00246476
8 *788:wbs_dat_i[27] *629:16 0.00588215
9 *788:wbs_dat_i[27] *632:23 0.00171539
10 *595:13 wbs_dat_o[24] 5.44456e-05
11 *595:13 wbs_dat_o[27] 0.00259873
12 *595:13 *597:13 0.00727655
13 *595:13 *599:13 0.00100295
14 *595:13 *631:28 5.11566e-05
15 *595:15 *597:15 0.00434319
16 *788:wbs_adr_i[27] *788:wbs_dat_i[27] 0
*RES
1 wbs_dat_i[27] *595:13 21.156 
2 *595:13 *595:15 97.875 
3 *595:15 *788:wbs_dat_i[27] 26.3352 
*END

*D_NET *596 0.0366826
*CONN
*P wbs_dat_i[28] I
*I *788:wbs_dat_i[28] I *D afe_wb
*CAP
1 wbs_dat_i[28] 0.0101216
2 *788:wbs_dat_i[28] 0.000437937
3 *596:15 0.00331066
4 *596:13 0.00287272
5 *596:11 0.0101216
6 *788:wbs_dat_i[28] *625:11 0.000475305
7 *596:11 wbs_dat_o[20] 0
8 *596:15 wbs_dat_o[17] 0
9 *596:15 *628:9 0.00201353
10 *596:15 *628:11 0.0026145
11 *788:wbs_adr_i[28] *788:wbs_dat_i[28] 0
12 *555:13 *596:11 0.00384638
13 *556:13 *596:11 0
14 *557:13 *596:11 0
15 *588:13 *596:11 0.000868436
16 *589:13 *596:11 0
17 *590:13 *596:11 0
*RES
1 wbs_dat_i[28] *596:11 47.8315 
2 *596:11 *596:13 3.41 
3 *596:13 *596:15 83.9107 
4 *596:15 *788:wbs_dat_i[28] 11.9002 
*END

*D_NET *597 0.0559474
*CONN
*P wbs_dat_i[29] I
*I *788:wbs_dat_i[29] I *D afe_wb
*CAP
1 wbs_dat_i[29] 0.00215249
2 *788:wbs_dat_i[29] 0.00182195
3 *597:15 0.00431907
4 *597:13 0.00464961
5 *788:wbs_dat_i[29] *788:wbs_dat_i[31] 0.00679728
6 *788:wbs_dat_i[29] *625:11 0.00113346
7 *788:wbs_dat_i[29] *629:16 4.97144e-05
8 *788:wbs_dat_i[29] *632:23 0.00122753
9 *597:13 wbs_dat_o[24] 0.00246692
10 *597:13 wbs_dat_o[26] 0.000850211
11 *597:13 wbs_dat_o[27] 0.000250898
12 *597:13 *599:13 0.000738072
13 *597:13 *632:23 0.0067428
14 *788:wbs_adr_i[29] *788:wbs_dat_i[29] 0
15 *788:wbs_dat_i[27] *788:wbs_dat_i[29] 0.0090393
16 *591:7 *597:15 0.00208838
17 *595:13 *597:13 0.00727655
18 *595:15 *597:15 0.00434319
*RES
1 wbs_dat_i[29] *597:13 26.2925 
2 *597:13 *597:15 97.875 
3 *597:15 *788:wbs_dat_i[29] 23.6273 
*END

*D_NET *598 0.0116886
*CONN
*P wbs_dat_i[2] I
*I *788:wbs_dat_i[2] I *D afe_wb
*CAP
1 wbs_dat_i[2] 0.0010742
2 *788:wbs_dat_i[2] 0.0041951
3 *598:13 0.00526929
4 *788:wbs_dat_i[2] *630:5 0
5 *788:wbs_dat_i[2] *641:11 0.00115001
6 *788:wbs_adr_i[2] *788:wbs_dat_i[2] 0
7 *788:wbs_adr_i[3] *598:13 0
8 *568:11 *598:13 0
*RES
1 wbs_dat_i[2] *598:13 15.1617 
2 *598:13 *788:wbs_dat_i[2] 96.5982 
*END

*D_NET *599 0.0385928
*CONN
*P wbs_dat_i[30] I
*I *788:wbs_dat_i[30] I *D afe_wb
*CAP
1 wbs_dat_i[30] 0.00798217
2 *788:wbs_dat_i[30] 2.31538e-05
3 *599:15 0.00504564
4 *599:13 0.0130047
5 *599:13 wbs_dat_o[22] 0.00250641
6 *599:13 wbs_dat_o[24] 3.19838e-05
7 *599:13 wbs_dat_o[25] 0.00213147
8 *599:13 wbs_dat_o[27] 0.00536906
9 *599:13 *631:28 0.000215301
10 *599:13 *632:23 0.000331237
11 *599:15 wbs_dat_o[18] 0
12 *788:wbs_adr_i[30] *599:15 0
13 *553:13 *599:15 0
14 *558:13 *599:13 0.000210755
15 *566:11 *599:13 0
16 *590:13 *599:13 0
17 *595:13 *599:13 0.00100295
18 *597:13 *599:13 0.000738072
*RES
1 wbs_dat_i[30] *599:13 43.9271 
2 *599:13 *599:15 97.875 
3 *599:15 *788:wbs_dat_i[30] 0.473214 
*END

*D_NET *600 0.0498882
*CONN
*P wbs_dat_i[31] I
*I *788:wbs_dat_i[31] I *D afe_wb
*CAP
1 wbs_dat_i[31] 0.000101533
2 *788:wbs_dat_i[31] 0.00181971
3 *600:15 0.00583031
4 *600:13 0.00401059
5 *600:11 0.00437828
6 *600:9 0.00447981
7 *788:wbs_dat_i[31] *625:11 0.00805523
8 *788:wbs_dat_i[31] *629:16 0.000405625
9 *788:wbs_dat_i[31] *632:23 0
10 *600:11 wbs_dat_o[28] 0.00232536
11 *600:11 *631:30 0.00889166
12 *600:11 *632:23 0.000459444
13 *788:wbs_adr_i[31] *788:wbs_dat_i[31] 0
14 *788:wbs_dat_i[29] *788:wbs_dat_i[31] 0.00679728
15 *559:9 *600:15 0
16 *559:11 *600:15 0.00190653
17 *559:21 *600:15 0.000426869
*RES
1 wbs_dat_i[31] *600:9 6.48214 
2 *600:9 *600:11 115.536 
3 *600:11 *600:13 4.5 
4 *600:13 *600:15 99.5446 
5 *600:15 *788:wbs_dat_i[31] 22.7931 
*END

*D_NET *601 0.013004
*CONN
*P wbs_dat_i[3] I
*I *788:wbs_dat_i[3] I *D afe_wb
*CAP
1 wbs_dat_i[3] 0.0015513
2 *788:wbs_dat_i[3] 0.00448546
3 *601:13 0.00603675
4 *788:wbs_dat_i[3] *633:5 0
5 *601:13 wbs_dat_o[3] 0
6 *601:13 wbs_dat_o[4] 0.000356011
7 *601:13 *602:13 0.000217782
8 *601:13 *643:13 0
9 *788:wbs_adr_i[3] *788:wbs_dat_i[3] 0
10 *788:wbs_adr_i[5] *601:13 0.000356707
11 *569:17 *601:13 0
*RES
1 wbs_dat_i[3] *601:13 21.1916 
2 *601:13 *788:wbs_dat_i[3] 92.3482 
*END

*D_NET *602 0.0159163
*CONN
*P wbs_dat_i[4] I
*I *788:wbs_dat_i[4] I *D afe_wb
*CAP
1 wbs_dat_i[4] 0.00157836
2 *788:wbs_dat_i[4] 0.00450025
3 *602:13 0.00607861
4 *788:wbs_dat_i[4] *634:5 0
5 *602:13 wbs_dat_o[3] 0
6 *602:13 wbs_dat_o[4] 0.00302745
7 *602:13 wbs_dat_o[5] 0.00036282
8 *602:13 *788:wbs_dat_i[7] 0.000151039
9 *602:13 *603:13 0
10 *569:17 *788:wbs_dat_i[4] 0
11 *601:13 *602:13 0.000217782
*RES
1 wbs_dat_i[4] *602:13 24.4761 
2 *602:13 *788:wbs_dat_i[4] 91.1339 
*END

*D_NET *603 0.0164875
*CONN
*P wbs_dat_i[5] I
*I *788:wbs_dat_i[5] I *D afe_wb
*CAP
1 wbs_dat_i[5] 0.00220667
2 *788:wbs_dat_i[5] 0.00424546
3 *603:13 0.00645213
4 *788:wbs_dat_i[5] *635:5 0
5 *603:13 wbs_dat_o[3] 0.000256027
6 *603:13 wbs_dat_o[5] 0.00332724
7 *788:wbs_adr_i[5] *788:wbs_dat_i[5] 0
8 *602:13 *603:13 0
*RES
1 wbs_dat_i[5] *603:13 28.499 
2 *603:13 *788:wbs_dat_i[5] 87.4911 
*END

*D_NET *604 0.0177469
*CONN
*P wbs_dat_i[6] I
*I *788:wbs_dat_i[6] I *D afe_wb
*CAP
1 wbs_dat_i[6] 0.00152438
2 *788:wbs_dat_i[6] 0.00290845
3 *604:13 0.0045414
4 *604:9 0.00315733
5 *788:wbs_dat_i[6] *636:15 0
6 *604:13 *609:5 0
7 *788:wbs_adr_i[6] *788:wbs_dat_i[6] 0.00400177
8 *788:wbs_adr_i[7] *788:wbs_dat_i[6] 0
9 *788:wbs_dat_i[10] *604:9 0.000167047
10 *788:wbs_dat_i[10] *604:13 0.00144648
11 *544:13 *604:9 0
*RES
1 wbs_dat_i[6] *604:9 31.2411 
2 *604:9 *604:13 49.535 
3 *604:13 *788:wbs_dat_i[6] 36.7612 
*END

*D_NET *605 0.0162162
*CONN
*P wbs_dat_i[7] I
*I *788:wbs_dat_i[7] I *D afe_wb
*CAP
1 wbs_dat_i[7] 0.00305913
2 *788:wbs_dat_i[7] 0.00467431
3 *605:13 0.00773344
4 *788:wbs_dat_i[7] *637:5 0
5 *605:13 wbs_dat_o[11] 0.000335992
6 *605:13 wbs_dat_o[4] 0.000158555
7 *605:13 wbs_dat_o[5] 0
8 *605:13 wbs_dat_o[9] 0
9 *605:13 *607:13 0
10 *788:wbs_adr_i[12] *605:13 0.000103722
11 *788:wbs_adr_i[7] *788:wbs_dat_i[7] 0
12 *570:13 *605:13 0
13 *602:13 *788:wbs_dat_i[7] 0.000151039
*RES
1 wbs_dat_i[7] *605:13 24.786 
2 *605:13 *788:wbs_dat_i[7] 92.9554 
*END

*D_NET *606 0.0201357
*CONN
*P wbs_dat_i[8] I
*I *788:wbs_dat_i[8] I *D afe_wb
*CAP
1 wbs_dat_i[8] 0.00349074
2 *788:wbs_dat_i[8] 0.00399695
3 *606:13 0.00748769
4 *788:wbs_dat_i[8] *638:5 0
5 *606:13 *607:13 0
6 *788:wbs_adr_i[8] *788:wbs_dat_i[8] 0
7 *788:wbs_dat_i[13] *606:13 0
8 *573:13 *606:13 0.00516036
*RES
1 wbs_dat_i[8] *606:13 37.3307 
2 *606:13 *788:wbs_dat_i[8] 81.4196 
*END

*D_NET *607 0.0212431
*CONN
*P wbs_dat_i[9] I
*I *788:wbs_dat_i[9] I *D afe_wb
*CAP
1 wbs_dat_i[9] 0.00326066
2 *788:wbs_dat_i[9] 0.00428611
3 *607:13 0.00754676
4 *788:wbs_dat_i[9] *639:5 0
5 *607:13 wbs_dat_o[9] 0.00592223
6 *788:wbs_adr_i[15] *607:13 0.00022738
7 *788:wbs_adr_i[9] *788:wbs_dat_i[9] 0
8 *788:wbs_dat_i[15] *607:13 0
9 *574:9 *607:13 0
10 *605:13 *607:13 0
11 *606:13 *607:13 0
*RES
1 wbs_dat_i[9] *607:13 33.2861 
2 *607:13 *788:wbs_dat_i[9] 86.8839 
*END

*D_NET *608 0.0103678
*CONN
*P wbs_dat_o[0] O
*I *788:wbs_dat_o[0] O *D afe_wb
*CAP
1 wbs_dat_o[0] 0.00162699
2 *788:wbs_dat_o[0] 0.00355515
3 *608:5 0.00518214
4 *608:5 *788:wbs_sel_i[0] 0
5 *788:wbs_dat_i[0] wbs_dat_o[0] 3.4846e-06
6 *576:9 wbs_dat_o[0] 0
*RES
1 *788:wbs_dat_o[0] *608:5 72.1696 
2 *608:5 wbs_dat_o[0] 33.0804 
*END

*D_NET *609 0.0176326
*CONN
*P wbs_dat_o[10] O
*I *788:wbs_dat_o[10] O *D afe_wb
*CAP
1 wbs_dat_o[10] 0.00208
2 *788:wbs_dat_o[10] 0.00309482
3 *609:9 0.00572149
4 *609:7 0.00364149
5 *609:5 0.00309482
6 *609:5 *636:15 0
7 *609:5 *636:17 0
8 *788:wbs_adr_i[11] *609:5 0
9 *788:wbs_adr_i[17] wbs_dat_o[10] 0
10 *788:wbs_dat_i[10] *609:5 0
11 *604:13 *609:5 0
*RES
1 *788:wbs_dat_o[10] *609:5 63.0536 
2 *609:5 *609:7 4.5 
3 *609:7 *609:9 65.4286 
4 *609:9 wbs_dat_o[10] 44.3214 
*END

*D_NET *610 0.0243076
*CONN
*P wbs_dat_o[11] O
*I *788:wbs_dat_o[11] O *D afe_wb
*CAP
1 wbs_dat_o[11] 0.00346901
2 *788:wbs_dat_o[11] 0.00391458
3 *610:5 0.00738359
4 wbs_dat_o[11] wbs_dat_o[9] 0
5 *788:wbs_adr_i[12] *610:5 0
6 *788:wbs_dat_i[11] *610:5 0
7 *546:13 wbs_dat_o[11] 0.00757554
8 *572:9 *610:5 0
9 *572:11 *610:5 0.00162889
10 *582:13 wbs_dat_o[11] 0
11 *605:13 wbs_dat_o[11] 0.000335992
*RES
1 *788:wbs_dat_o[11] *610:5 93.5625 
2 *610:5 wbs_dat_o[11] 29.0577 
*END

*D_NET *611 0.0213725
*CONN
*P wbs_dat_o[12] O
*I *788:wbs_dat_o[12] O *D afe_wb
*CAP
1 wbs_dat_o[12] 0.00137624
2 *788:wbs_dat_o[12] 0.00126077
3 *611:15 0.00293062
4 *611:11 0.00155438
5 *611:9 0.00433703
6 *611:7 0.0055978
7 wbs_dat_o[12] *620:5 0.000566557
8 *611:15 *620:5 0.00374908
9 *788:wbs_adr_i[13] *611:7 0
10 *788:wbs_dat_i[12] *611:7 0
11 *788:wbs_dat_i[20] wbs_dat_o[12] 0
12 *788:wbs_dat_i[20] *611:15 0
*RES
1 *788:wbs_dat_o[12] *611:7 30.5179 
2 *611:7 *611:9 78.5714 
3 *611:9 *611:11 4.5 
4 *611:11 *611:15 47.2232 
5 *611:15 wbs_dat_o[12] 30.9018 
*END

*D_NET *612 0.0247965
*CONN
*P wbs_dat_o[13] O
*I *788:wbs_dat_o[13] O *D afe_wb
*CAP
1 wbs_dat_o[13] 0.00140509
2 *788:wbs_dat_o[13] 0.00339257
3 *612:11 0.00525778
4 *612:5 0.00724526
5 *612:11 *614:11 0
6 *612:11 *621:11 0.000688899
7 *612:11 *638:11 0
8 *788:wbs_adr_i[14] *612:5 0
9 *788:wbs_adr_i[22] wbs_dat_o[13] 0
10 *788:wbs_dat_i[13] *612:5 0
11 *788:wbs_dat_i[22] wbs_dat_o[13] 0.00208613
12 *548:9 wbs_dat_o[13] 0
13 *548:13 *612:11 0.00472079
14 *577:13 *612:11 0
*RES
1 *788:wbs_dat_o[13] *612:5 68.0625 
2 *612:5 *612:11 21.7848 
3 *612:11 wbs_dat_o[13] 35.6696 
*END

*D_NET *613 0.0333753
*CONN
*P wbs_dat_o[14] O
*I *788:wbs_dat_o[14] O *D afe_wb
*CAP
1 wbs_dat_o[14] 6.49481e-05
2 *788:wbs_dat_o[14] 0.00325272
3 *613:13 0.00364645
4 *613:5 0.00683422
5 *788:wbs_adr_i[15] *613:5 0
6 *788:wbs_dat_i[14] *613:5 0
7 *788:wbs_dat_i[14] *613:13 0
8 *544:11 *613:13 0.00177641
9 *551:11 *613:13 0.00744935
10 *558:13 *613:13 0.000191834
11 *574:9 *613:13 0
12 *574:13 *613:5 0.000650336
13 *574:13 *613:13 0
14 *581:11 *613:13 0.00950907
*RES
1 *788:wbs_dat_o[14] *613:5 72.1696 
2 *613:5 *613:13 49.7211 
3 *613:13 wbs_dat_o[14] 4.70464 
*END

*D_NET *614 0.0226865
*CONN
*P wbs_dat_o[15] O
*I *788:wbs_dat_o[15] O *D afe_wb
*CAP
1 wbs_dat_o[15] 0.00205847
2 *788:wbs_dat_o[15] 0.00313686
3 *614:11 0.00820639
4 *614:5 0.00928478
5 *614:11 *621:11 0
6 *788:wbs_adr_i[16] *614:5 0
7 *788:wbs_dat_i[15] *614:5 0
8 *585:17 *614:11 0
9 *612:11 *614:11 0
*RES
1 *788:wbs_dat_o[15] *614:5 63.2054 
2 *614:5 *614:11 23.6585 
3 *614:11 wbs_dat_o[15] 39.2589 
*END

*D_NET *615 0.0291746
*CONN
*P wbs_dat_o[16] O
*I *788:wbs_dat_o[16] O *D afe_wb
*CAP
1 wbs_dat_o[16] 0.00579546
2 *788:wbs_dat_o[16] 0.00384302
3 *615:5 0.00963848
4 wbs_dat_o[16] wbs_dat_o[18] 0.00917374
5 wbs_dat_o[16] *626:5 0
6 *788:wbs_adr_i[17] *615:5 0
7 *788:wbs_dat_i[16] *615:5 0
8 *577:13 *615:5 0.000497194
9 *579:11 wbs_dat_o[16] 0.000226704
10 *583:11 wbs_dat_o[16] 0
*RES
1 *788:wbs_dat_o[16] *615:5 80.2054 
2 *615:5 wbs_dat_o[16] 47.3371 
*END

*D_NET *616 0.0376586
*CONN
*P wbs_dat_o[17] O
*I *788:wbs_dat_o[17] O *D afe_wb
*CAP
1 wbs_dat_o[17] 0.00238115
2 *788:wbs_dat_o[17] 0.00276104
3 *616:11 0.00487825
4 *616:5 0.00525815
5 wbs_dat_o[17] *628:11 0
6 *788:wbs_adr_i[18] *616:5 0
7 *788:wbs_dat_i[17] *616:5 0
8 *545:13 *616:5 0
9 *584:13 *616:11 0.011267
10 *585:17 *616:11 0.011113
11 *592:13 *616:11 0
12 *596:15 wbs_dat_o[17] 0
*RES
1 *788:wbs_dat_o[17] *616:5 56.5268 
2 *616:5 *616:11 25.7485 
3 *616:11 wbs_dat_o[17] 45.9375 
*END

*D_NET *617 0.0378012
*CONN
*P wbs_dat_o[18] O
*I *788:wbs_dat_o[18] O *D afe_wb
*CAP
1 wbs_dat_o[18] 0.00407589
2 *788:wbs_dat_o[18] 0.00408884
3 *617:5 0.00816473
4 wbs_dat_o[16] wbs_dat_o[18] 0.00917374
5 *788:wbs_adr_i[19] *617:5 0
6 *788:wbs_dat_i[18] *617:5 0
7 *553:13 wbs_dat_o[18] 0.012298
8 *562:13 wbs_dat_o[18] 0
9 *585:11 wbs_dat_o[18] 0
10 *599:15 wbs_dat_o[18] 0
*RES
1 *788:wbs_dat_o[18] *617:5 80.8125 
2 *617:5 wbs_dat_o[18] 49.1585 
*END

*D_NET *618 0.0335967
*CONN
*P wbs_dat_o[19] O
*I *788:wbs_dat_o[19] O *D afe_wb
*CAP
1 wbs_dat_o[19] 0.00603608
2 *788:wbs_dat_o[19] 0.0043328
3 *618:5 0.0103689
4 *788:wbs_adr_i[20] *618:5 0
5 *788:wbs_dat_i[19] *618:5 0
6 *553:13 wbs_dat_o[19] 0
7 *555:13 wbs_dat_o[19] 0.0126674
8 *579:9 *618:5 0
9 *582:13 wbs_dat_o[19] 0.000191595
*RES
1 *788:wbs_dat_o[19] *618:5 86.8839 
2 *618:5 wbs_dat_o[19] 44.0961 
*END

*D_NET *619 0.0113616
*CONN
*P wbs_dat_o[1] O
*I *788:wbs_dat_o[1] O *D afe_wb
*CAP
1 wbs_dat_o[1] 0.00111359
2 *788:wbs_dat_o[1] 0.00420998
3 *619:5 0.00532357
4 *788:wbs_dat_i[1] *619:5 0
5 *587:9 *619:5 0.000714471
*RES
1 *788:wbs_dat_o[1] *619:5 88.7054 
2 *619:5 wbs_dat_o[1] 22.3842 
*END

*D_NET *620 0.0450516
*CONN
*P wbs_dat_o[20] O
*I *788:wbs_dat_o[20] O *D afe_wb
*CAP
1 wbs_dat_o[20] 0.00309703
2 *788:wbs_dat_o[20] 0.00352626
3 *620:5 0.0066233
4 wbs_dat_o[12] *620:5 0.000566557
5 *788:wbs_adr_i[21] *620:5 0
6 *549:13 wbs_dat_o[20] 7.77103e-05
7 *556:13 wbs_dat_o[20] 0.0138987
8 *588:13 wbs_dat_o[20] 0.013513
9 *596:11 wbs_dat_o[20] 0
10 *611:15 *620:5 0.00374908
*RES
1 *788:wbs_dat_o[20] *620:5 91.7411 
2 *620:5 wbs_dat_o[20] 40.538 
*END

*D_NET *621 0.0349319
*CONN
*P wbs_dat_o[21] O
*I *788:wbs_dat_o[21] O *D afe_wb
*CAP
1 wbs_dat_o[21] 0.00179132
2 *788:wbs_dat_o[21] 0.00338741
3 *621:11 0.00694232
4 *621:5 0.00853841
5 *621:11 *623:11 0.0125235
6 *788:wbs_adr_i[22] *621:5 0
7 *788:wbs_dat_i[21] *621:5 0
8 *548:13 *621:11 0.00106001
9 *550:11 *621:11 0
10 *564:13 *621:11 0
11 *612:11 *621:11 0.000688899
12 *614:11 *621:11 0
*RES
1 *788:wbs_dat_o[21] *621:5 68.6696 
2 *621:5 *621:11 29.8563 
3 *621:11 wbs_dat_o[21] 34.2054 
*END

*D_NET *622 0.0381574
*CONN
*P wbs_dat_o[22] O
*I *788:wbs_dat_o[22] O *D afe_wb
*CAP
1 wbs_dat_o[22] 0.00455787
2 *788:wbs_dat_o[22] 0.00446342
3 *622:5 0.00902129
4 *788:wbs_adr_i[23] *622:5 0
5 *788:wbs_dat_i[22] *622:5 0
6 *548:9 *622:5 0.00243464
7 *549:13 wbs_dat_o[22] 0
8 *558:13 wbs_dat_o[22] 0.0150288
9 *581:11 wbs_dat_o[22] 0.00014492
10 *590:13 wbs_dat_o[22] 0
11 *599:13 wbs_dat_o[22] 0.00250641
*RES
1 *788:wbs_dat_o[22] *622:5 99.6339 
2 *622:5 wbs_dat_o[22] 34.1783 
*END

*D_NET *623 0.0356124
*CONN
*P wbs_dat_o[23] O
*I *788:wbs_dat_o[23] O *D afe_wb
*CAP
1 wbs_dat_o[23] 0.0017058
2 *788:wbs_dat_o[23] 0.00351055
3 *623:11 0.00803389
4 *623:5 0.00983864
5 *788:wbs_dat_i[23] *623:5 0
6 *550:11 *623:11 0
7 *562:13 *623:11 0
8 *564:13 *623:11 0
9 *591:7 wbs_dat_o[23] 0
10 *621:11 *623:11 0.0125235
*RES
1 *788:wbs_dat_o[23] *623:5 69.2768 
2 *623:5 *623:11 31.8741 
3 *623:11 wbs_dat_o[23] 34.0089 
*END

*D_NET *624 0.0481454
*CONN
*P wbs_dat_o[24] O
*I *788:wbs_dat_o[24] O *D afe_wb
*CAP
1 wbs_dat_o[24] 0.00297077
2 *788:wbs_dat_o[24] 0.00495652
3 *624:5 0.00792729
4 wbs_dat_o[24] wbs_dat_o[26] 0.0144949
5 *788:wbs_adr_i[25] *624:5 0
6 *788:wbs_dat_i[24] *624:5 0
7 *551:11 wbs_dat_o[24] 0.000869519
8 *558:13 wbs_dat_o[24] 0.0140145
9 *582:13 *624:5 0.000358648
10 *595:13 wbs_dat_o[24] 5.44456e-05
11 *597:13 wbs_dat_o[24] 0.00246692
12 *599:13 wbs_dat_o[24] 3.19838e-05
*RES
1 *788:wbs_dat_o[24] *624:5 100.848 
2 *624:5 wbs_dat_o[24] 35.054 
*END

*D_NET *625 0.0373461
*CONN
*P wbs_dat_o[25] O
*I *788:wbs_dat_o[25] O *D afe_wb
*CAP
1 wbs_dat_o[25] 0.00114693
2 *788:wbs_dat_o[25] 0.0064524
3 *625:13 0.00577305
4 *625:11 0.0110785
5 wbs_dat_o[25] *631:28 0.000222182
6 *625:11 *629:16 0.000175916
7 *788:wbs_adr_i[26] *625:11 0
8 *788:wbs_dat_i[25] *625:11 0
9 *788:wbs_dat_i[27] *625:11 0.000701618
10 *788:wbs_dat_i[28] *625:11 0.000475305
11 *788:wbs_dat_i[29] *625:11 0.00113346
12 *788:wbs_dat_i[31] *625:11 0.00805523
13 *592:7 *625:13 0
14 *593:9 wbs_dat_o[25] 0
15 *599:13 wbs_dat_o[25] 0.00213147
*RES
1 *788:wbs_dat_o[25] *625:11 34.4264 
2 *625:11 *625:13 93.625 
3 *625:13 wbs_dat_o[25] 15.8517 
*END

*D_NET *626 0.0526391
*CONN
*P wbs_dat_o[26] O
*I *788:wbs_dat_o[26] O *D afe_wb
*CAP
1 wbs_dat_o[26] 0.00439531
2 *788:wbs_dat_o[26] 0.00516035
3 *626:5 0.00955566
4 wbs_dat_o[26] wbs_dat_o[28] 0.0156812
5 wbs_dat_o[26] *632:23 0.00196652
6 wbs_dat_o[16] *626:5 0
7 wbs_dat_o[24] wbs_dat_o[26] 0.0144949
8 *788:wbs_adr_i[27] *626:5 0
9 *788:wbs_dat_i[26] *626:5 0
10 *551:11 wbs_dat_o[26] 0.000534987
11 *583:11 *626:5 0
12 *597:13 wbs_dat_o[26] 0.000850211
*RES
1 *788:wbs_dat_o[26] *626:5 101.455 
2 *626:5 wbs_dat_o[26] 36.7504 
*END

*D_NET *627 0.0449631
*CONN
*P wbs_dat_o[27] O
*I *788:wbs_dat_o[27] O *D afe_wb
*CAP
1 wbs_dat_o[27] 0.00131057
2 *788:wbs_dat_o[27] 0.00453273
3 *627:13 0.00632549
4 *627:11 0.00954765
5 wbs_dat_o[27] *631:28 4.73891e-05
6 *627:11 *629:16 0.0101532
7 *627:11 *631:28 9.61096e-05
8 *627:11 *632:23 0.00226652
9 *788:wbs_adr_i[28] *627:11 0
10 *788:wbs_dat_i[27] *627:11 0.00246476
11 *560:7 *627:13 0
12 *563:9 wbs_dat_o[27] 0
13 *595:13 wbs_dat_o[27] 0.00259873
14 *597:13 wbs_dat_o[27] 0.000250898
15 *599:13 wbs_dat_o[27] 0.00536906
*RES
1 *788:wbs_dat_o[27] *627:11 28.8684 
2 *627:11 *627:13 97.875 
3 *627:13 wbs_dat_o[27] 19.8785 
*END

*D_NET *628 0.048747
*CONN
*P wbs_dat_o[28] O
*I *788:wbs_dat_o[28] O *D afe_wb
*CAP
1 wbs_dat_o[28] 0.00689708
2 *788:wbs_dat_o[28] 0.00110698
3 *628:11 0.00975732
4 *628:9 0.00396722
5 wbs_dat_o[28] *631:30 0.00234848
6 wbs_dat_o[28] *632:23 0.00203528
7 wbs_dat_o[17] *628:11 0
8 wbs_dat_o[26] wbs_dat_o[28] 0.0156812
9 *788:wbs_adr_i[29] *628:9 0
10 *788:wbs_adr_i[29] *628:11 0
11 *552:7 *628:11 0
12 *596:15 *628:9 0.00201353
13 *596:15 *628:11 0.0026145
14 *600:11 wbs_dat_o[28] 0.00232536
*RES
1 *788:wbs_dat_o[28] *628:9 30.9375 
2 *628:9 *628:11 73.1429 
3 *628:11 wbs_dat_o[28] 38.2134 
*END

*D_NET *629 0.0499812
*CONN
*P wbs_dat_o[29] O
*I *788:wbs_dat_o[29] O *D afe_wb
*CAP
1 wbs_dat_o[29] 0.0118756
2 *788:wbs_dat_o[29] 0.00324854
3 *629:16 0.0151242
4 wbs_dat_o[29] *631:28 0.000370167
5 wbs_dat_o[29] *632:23 0.000232552
6 *629:16 *631:28 9.61096e-05
7 *629:16 *632:23 0.0018208
8 *788:wbs_dat_i[27] *629:16 0.00588215
9 *788:wbs_dat_i[29] *629:16 4.97144e-05
10 *788:wbs_dat_i[31] *629:16 0.000405625
11 *560:7 wbs_dat_o[29] 0.000546721
12 *625:11 *629:16 0.000175916
13 *627:11 *629:16 0.0101532
*RES
1 *788:wbs_dat_o[29] *629:16 34.5259 
2 *629:16 wbs_dat_o[29] 28.7285 
*END

*D_NET *630 0.0123308
*CONN
*P wbs_dat_o[2] O
*I *788:wbs_dat_o[2] O *D afe_wb
*CAP
1 wbs_dat_o[2] 0.00185822
2 *788:wbs_dat_o[2] 0.00392559
3 *630:5 0.00578381
4 wbs_dat_o[2] *788:wbs_sel_i[3] 0.0007632
5 wbs_dat_o[2] *633:5 0
6 wbs_dat_o[2] *642:13 0
7 *630:5 *788:wbs_sel_i[2] 0
8 *630:5 *641:11 0
9 *788:wbs_dat_i[2] *630:5 0
10 *565:13 *630:5 0
*RES
1 *788:wbs_dat_o[2] *630:5 80.8125 
2 *630:5 wbs_dat_o[2] 31.8645 
*END

*D_NET *631 0.0451504
*CONN
*P wbs_dat_o[30] O
*I *788:wbs_dat_o[30] O *D afe_wb
*CAP
1 wbs_dat_o[30] 0.00017419
2 *788:wbs_dat_o[30] 0.0130883
3 *631:30 0.00286779
4 *631:28 0.0157819
5 *631:28 *632:23 3.8854e-06
6 *631:30 *632:23 0.000652741
7 wbs_dat_o[25] *631:28 0.000222182
8 wbs_dat_o[27] *631:28 4.73891e-05
9 wbs_dat_o[28] *631:30 0.00234848
10 wbs_dat_o[29] *631:28 0.000370167
11 *788:wbs_adr_i[31] *631:28 0.000242985
12 *593:9 *631:28 0
13 *595:13 *631:28 5.11566e-05
14 *599:13 *631:28 0.000215301
15 *600:11 *631:30 0.00889166
16 *627:11 *631:28 9.61096e-05
17 *629:16 *631:28 9.61096e-05
*RES
1 *788:wbs_dat_o[30] *631:28 42.5445 
2 *631:28 *631:30 83.5 
3 *631:30 wbs_dat_o[30] 6.48214 
*END

*D_NET *632 0.0557172
*CONN
*P wbs_dat_o[31] O
*I *788:wbs_dat_o[31] O *D afe_wb
*CAP
1 wbs_dat_o[31] 0.000104839
2 *788:wbs_dat_o[31] 0.0174773
3 *632:23 0.0175821
4 wbs_dat_o[26] *632:23 0.00196652
5 wbs_dat_o[28] *632:23 0.00203528
6 wbs_dat_o[29] *632:23 0.000232552
7 *788:wbs_dat_i[27] *632:23 0.00171539
8 *788:wbs_dat_i[29] *632:23 0.00122753
9 *788:wbs_dat_i[31] *632:23 0
10 *593:9 *632:23 0.000217431
11 *593:11 *632:23 0.000880833
12 *597:13 *632:23 0.0067428
13 *599:13 *632:23 0.000331237
14 *600:11 *632:23 0.000459444
15 *627:11 *632:23 0.00226652
16 *629:16 *632:23 0.0018208
17 *631:28 *632:23 3.8854e-06
18 *631:30 *632:23 0.000652741
*RES
1 *788:wbs_dat_o[31] *632:23 49.4945 
2 *632:23 wbs_dat_o[31] 5.43679 
*END

*D_NET *633 0.0131089
*CONN
*P wbs_dat_o[3] O
*I *788:wbs_dat_o[3] O *D afe_wb
*CAP
1 wbs_dat_o[3] 0.00211928
2 *788:wbs_dat_o[3] 0.00422387
3 *633:5 0.00634315
4 wbs_dat_o[3] *635:5 3.2815e-05
5 wbs_dat_o[3] *642:13 0.000133787
6 *633:5 *788:wbs_sel_i[3] 0
7 wbs_dat_o[2] *633:5 0
8 *788:wbs_dat_i[3] *633:5 0
9 *601:13 wbs_dat_o[3] 0
10 *602:13 wbs_dat_o[3] 0
11 *603:13 wbs_dat_o[3] 0.000256027
*RES
1 *788:wbs_dat_o[3] *633:5 86.8839 
2 *633:5 wbs_dat_o[3] 26.6776 
*END

*D_NET *634 0.0158593
*CONN
*P wbs_dat_o[4] O
*I *788:wbs_dat_o[4] O *D afe_wb
*CAP
1 wbs_dat_o[4] 0.00169955
2 *788:wbs_dat_o[4] 0.00445907
3 *634:5 0.00615863
4 wbs_dat_o[4] wbs_dat_o[5] 0
5 *788:wbs_adr_i[5] *634:5 0
6 *788:wbs_dat_i[4] *634:5 0
7 *569:17 wbs_dat_o[4] 0
8 *570:13 wbs_dat_o[4] 0
9 *601:13 wbs_dat_o[4] 0.000356011
10 *602:13 wbs_dat_o[4] 0.00302745
11 *605:13 wbs_dat_o[4] 0.000158555
*RES
1 *788:wbs_dat_o[4] *634:5 91.7411 
2 *634:5 wbs_dat_o[4] 23.5284 
*END

*D_NET *635 0.0165531
*CONN
*P wbs_dat_o[5] O
*I *788:wbs_dat_o[5] O *D afe_wb
*CAP
1 wbs_dat_o[5] 0.00207365
2 *788:wbs_dat_o[5] 0.00434145
3 *635:5 0.0064151
4 wbs_dat_o[3] *635:5 3.2815e-05
5 wbs_dat_o[4] wbs_dat_o[5] 0
6 *788:wbs_dat_i[5] *635:5 0
7 *602:13 wbs_dat_o[5] 0.00036282
8 *603:13 wbs_dat_o[5] 0.00332724
9 *605:13 wbs_dat_o[5] 0
*RES
1 *788:wbs_dat_o[5] *635:5 88.0982 
2 *635:5 wbs_dat_o[5] 28.1802 
*END

*D_NET *636 0.0185509
*CONN
*P wbs_dat_o[6] O
*I *788:wbs_dat_o[6] O *D afe_wb
*CAP
1 wbs_dat_o[6] 0.000638358
2 *788:wbs_dat_o[6] 0.00314875
3 *636:17 0.00369339
4 *636:15 0.00620379
5 *788:wbs_adr_i[11] *636:15 0.000547735
6 *788:wbs_adr_i[6] *636:15 0
7 *788:wbs_adr_i[7] *636:15 0.0043189
8 *788:wbs_dat_i[11] wbs_dat_o[6] 0
9 *788:wbs_dat_i[11] *636:15 0
10 *788:wbs_dat_i[11] *636:17 0
11 *788:wbs_dat_i[6] *636:15 0
12 *572:9 wbs_dat_o[6] 0
13 *609:5 *636:15 0
14 *609:5 *636:17 0
*RES
1 *788:wbs_dat_o[6] *636:15 44.4059 
2 *636:15 *636:17 61.7321 
3 *636:17 wbs_dat_o[6] 12.9554 
*END

*D_NET *637 0.0161403
*CONN
*P wbs_dat_o[7] O
*I *788:wbs_dat_o[7] O *D afe_wb
*CAP
1 wbs_dat_o[7] 0.00229339
2 *788:wbs_dat_o[7] 0.00284839
3 *637:11 0.00522177
4 *637:5 0.00577676
5 *637:11 *638:11 0
6 *788:wbs_adr_i[8] *637:5 0
7 *788:wbs_dat_i[12] wbs_dat_o[7] 0
8 *788:wbs_dat_i[7] *637:5 0
9 *573:13 wbs_dat_o[7] 0
10 *574:17 *637:11 0
*RES
1 *788:wbs_dat_o[7] *637:5 57.1339 
2 *637:5 *637:11 15.2988 
3 *637:11 wbs_dat_o[7] 45.3304 
*END

*D_NET *638 0.0180663
*CONN
*P wbs_dat_o[8] O
*I *788:wbs_dat_o[8] O *D afe_wb
*CAP
1 wbs_dat_o[8] 0.00192351
2 *788:wbs_dat_o[8] 0.00310378
3 *638:11 0.00579217
4 *638:5 0.00697243
5 *788:wbs_adr_i[14] wbs_dat_o[8] 0.00027438
6 *788:wbs_adr_i[9] *638:5 0
7 *788:wbs_dat_i[14] wbs_dat_o[8] 0
8 *788:wbs_dat_i[8] *638:5 0
9 *612:11 *638:11 0
10 *637:11 *638:11 0
*RES
1 *788:wbs_dat_o[8] *638:5 63.2054 
2 *638:5 *638:11 16.2357 
3 *638:11 wbs_dat_o[8] 39.6696 
*END

*D_NET *639 0.0217364
*CONN
*P wbs_dat_o[9] O
*I *788:wbs_dat_o[9] O *D afe_wb
*CAP
1 wbs_dat_o[9] 0.00336962
2 *788:wbs_dat_o[9] 0.00432396
3 *639:5 0.00769357
4 wbs_dat_o[11] wbs_dat_o[9] 0
5 *788:wbs_adr_i[10] *639:5 0
6 *788:wbs_dat_i[9] *639:5 0
7 *571:9 *639:5 0
8 *571:11 *639:5 0
9 *582:13 wbs_dat_o[9] 0.000427012
10 *605:13 wbs_dat_o[9] 0
11 *607:13 wbs_dat_o[9] 0.00592223
*RES
1 *788:wbs_dat_o[9] *639:5 87.4911 
2 *639:5 wbs_dat_o[9] 32.7006 
*END

*D_NET *640 0.010026
*CONN
*P wbs_sel_i[0] I
*I *788:wbs_sel_i[0] I *D afe_wb
*CAP
1 wbs_sel_i[0] 0.000340632
2 *788:wbs_sel_i[0] 0.00467239
3 *640:13 0.00501302
4 *608:5 *788:wbs_sel_i[0] 0
*RES
1 wbs_sel_i[0] *640:13 7.66964 
2 *640:13 *788:wbs_sel_i[0] 96.5982 
*END

*D_NET *641 0.0111893
*CONN
*P wbs_sel_i[1] I
*I *788:wbs_sel_i[1] I *D afe_wb
*CAP
1 wbs_sel_i[1] 0.00204996
2 *788:wbs_sel_i[1] 0.00296971
3 *641:13 0.00296971
4 *641:11 0.00204996
5 *788:wbs_adr_i[2] *788:wbs_sel_i[1] 0
6 *788:wbs_dat_i[2] *641:11 0.00115001
7 *565:13 *641:11 0
8 *630:5 *641:11 0
*RES
1 wbs_sel_i[1] *641:11 47.5316 
2 *641:11 *641:13 3.41 
3 *641:13 *788:wbs_sel_i[1] 60.1696 
*END

*D_NET *642 0.0133052
*CONN
*P wbs_sel_i[2] I
*I *788:wbs_sel_i[2] I *D afe_wb
*CAP
1 wbs_sel_i[2] 0.0016793
2 *788:wbs_sel_i[2] 0.00385149
3 *642:13 0.00553079
4 *642:13 *788:wbs_sel_i[3] 0
5 wbs_dat_o[2] *642:13 0
6 wbs_dat_o[3] *642:13 0.000133787
7 *788:wbs_adr_i[3] *788:wbs_sel_i[2] 0
8 *565:13 *788:wbs_sel_i[2] 0.00156571
9 *569:17 *642:13 0.000544103
10 *630:5 *788:wbs_sel_i[2] 0
*RES
1 wbs_sel_i[2] *642:13 28.3638 
2 *642:13 *788:wbs_sel_i[2] 84.4554 
*END

*D_NET *643 0.014712
*CONN
*P wbs_sel_i[3] I
*I *788:wbs_sel_i[3] I *D afe_wb
*CAP
1 wbs_sel_i[3] 0.00131693
2 *788:wbs_sel_i[3] 0.00450341
3 *643:13 0.00582034
4 wbs_dat_o[2] *788:wbs_sel_i[3] 0.0007632
5 *788:wbs_adr_i[4] *788:wbs_sel_i[3] 0
6 *568:11 *643:13 0
7 *569:17 *788:wbs_sel_i[3] 0
8 *569:17 *643:13 0.00230817
9 *601:13 *643:13 0
10 *633:5 *788:wbs_sel_i[3] 0
11 *642:13 *788:wbs_sel_i[3] 0
*RES
1 wbs_sel_i[3] *643:13 16.0373 
2 *643:13 *788:wbs_sel_i[3] 97.8125 
*END

*D_NET *644 0.0117539
*CONN
*P wbs_stb_i I
*I *788:wbs_stb_i I *D afe_wb
*CAP
1 wbs_stb_i 0.0015409
2 *788:wbs_stb_i 0.000819888
3 *644:11 0.00395624
4 *644:9 0.00467725
5 *788:wbs_stb_i *645:7 0
6 *788:wb_clk_i *644:11 0
7 *788:wb_rst_i *644:11 0.000472225
8 *788:wbs_cyc_i *788:wbs_stb_i 0
9 *542:11 *788:wbs_stb_i 0.00028736
*RES
1 wbs_stb_i *644:9 31.8482 
2 *644:9 *644:11 67.9821 
3 *644:11 *788:wbs_stb_i 12.765 
*END

*D_NET *645 0.0106765
*CONN
*P wbs_we_i I
*I *788:wbs_we_i I *D afe_wb
*CAP
1 wbs_we_i 6.33454e-05
2 *788:wbs_we_i 0.000340567
3 *645:7 0.0052749
4 *645:5 0.00499768
5 *788:wbs_stb_i *645:7 0
6 *542:11 *645:7 0
*RES
1 wbs_we_i *645:5 1.29464 
2 *645:5 *645:7 101.518 
3 *645:7 *788:wbs_we_i 7.87593 
*END

*D_NET *646 0.19615
*CONN
*I *788:adc_data[0] I *D afe_wb
*I *789:data_out[0] O *D CF_ADC_SAR12
*CAP
1 *788:adc_data[0] 0
2 *789:data_out[0] 2.85363e-05
3 *646:25 0.010058
4 *646:23 0.0112248
5 *646:13 0.031325
6 *646:11 0.0301582
7 *646:9 0.0185166
8 *646:7 0.0185451
9 *646:7 *650:11 2.28027e-05
10 *646:7 *658:7 4.2002e-05
11 *646:9 *789:sample_width[3] 0.00228676
12 *646:9 *789:sample_width[4] 0.00376001
13 *646:9 *789:test_scanin 0.000203246
14 *646:9 *789:cap_trim[1] 0.000261127
15 *646:9 *789:dft_inc[3] 0.00245769
16 *646:9 *789:dft_inc[1] 0
17 *646:9 *789:icont_lv[0] 0.00048863
18 *646:9 *789:enable_hv 0.00109096
19 *646:9 *648:9 0.0303468
20 *646:9 *648:23 0.000452213
21 *646:9 *748:19 0.000225358
22 *646:9 *749:23 0
23 *646:9 *764:15 0.000508887
24 *646:23 *647:17 0.00126721
25 *646:23 *652:21 0.000549722
26 *646:23 *653:37 0
27 *646:23 *769:23 0.000480573
28 *646:23 *781:28 0.000154725
29 *646:25 *788:adc_data[1] 0.000503621
30 *646:25 *788:adc_data[4] 0.0204823
31 *646:25 *788:adc_data[5] 0.00998661
32 *789:refclk *646:9 0.000722386
*RES
1 *789:data_out[0] *646:7 5.32143 
2 *646:7 *646:9 455.402 
3 *646:9 *646:11 4.5 
4 *646:11 *646:13 595.732 
5 *646:13 *646:23 42.1511 
6 *646:23 *646:25 51.1423 
7 *646:25 *788:adc_data[0] 3.41 
*END

*D_NET *647 0.184966
*CONN
*I *788:adc_data[10] I *D afe_wb
*I *789:data_out[10] O *D CF_ADC_SAR12
*CAP
1 *788:adc_data[10] 0.00083922
2 *789:data_out[10] 0.000713542
3 *647:17 0.0164408
4 *647:15 0.0156016
5 *647:13 0.0182284
6 *647:11 0.018942
7 *788:adc_data[10] *788:adc_data[11] 0.000496163
8 *788:adc_data[10] *788:adc_data[4] 0.00300116
9 *788:adc_data[10] *665:27 6.58294e-06
10 *788:adc_data[10] *763:15 4.88317e-05
11 *788:adc_data[10] *769:23 0.00284432
12 *788:adc_data[10] *781:32 0.000690275
13 *647:11 *789:iso_en 0.000376948
14 *647:11 *648:7 5.03663e-05
15 *647:11 *648:9 6.52931e-05
16 *647:11 *652:15 0.00208343
17 *647:11 *656:21 2.58773e-05
18 *647:13 *676:9 0.0485598
19 *647:13 *742:9 0
20 *647:17 *652:21 0.052761
21 *647:17 *653:37 0
22 *647:17 *743:25 0.000579185
23 *647:17 *761:23 0.00110933
24 *647:17 *769:23 0.000152412
25 *647:17 *781:28 8.22781e-05
26 *646:23 *647:17 0.00126721
*RES
1 *789:data_out[10] *647:11 29.5759 
2 *647:11 *647:13 595.429 
3 *647:13 *647:15 4.5 
4 *647:15 *647:17 496.679 
5 *647:17 *788:adc_data[10] 20.1011 
*END

*D_NET *648 0.188384
*CONN
*I *788:adc_data[11] I *D afe_wb
*I *789:data_out[11] O *D CF_ADC_SAR12
*CAP
1 *788:adc_data[11] 0.000268522
2 *789:data_out[11] 4.28571e-05
3 *648:25 0.0257006
4 *648:23 0.0315723
5 *648:9 0.0159819
6 *648:7 0.00988459
7 *788:adc_data[11] *763:15 0.000916027
8 *648:7 *789:iso_en 3.55956e-05
9 *648:7 *789:next 1.02969e-05
10 *648:7 *656:21 0
11 *648:9 *789:sample_width[3] 0.00123958
12 *648:9 *789:sample_width[4] 0.00174346
13 *648:9 *789:scan_test_mode 0.000113332
14 *648:9 *789:cap_trim[2] 0.000156184
15 *648:9 *789:dft_inc[1] 0
16 *648:9 *789:dft_outc[0] 0.000572788
17 *648:9 *789:enable_hv 0.000711025
18 *648:9 *652:15 0.000481316
19 *648:23 *789:en_pump_lv 0.000142307
20 *648:23 *789:dft_inc[3] 0.00561457
21 *648:23 *789:icont_lv[0] 0.00984957
22 *648:23 *789:dft_outc[0] 2.72228e-05
23 *648:23 *658:9 0
24 *648:23 *748:19 0.000371132
25 *648:23 *749:19 0
26 *648:23 *757:15 0
27 *648:23 *764:15 0.00237186
28 *648:25 *665:29 0.0384877
29 *648:25 *699:21 4.2152e-05
30 *788:adc_data[10] *788:adc_data[11] 0.000496163
31 *789:refclk *648:9 0.000402957
32 *6:22 *648:25 0.0102333
33 *646:9 *648:9 0.0303468
34 *646:9 *648:23 0.000452213
35 *647:11 *648:7 5.03663e-05
36 *647:11 *648:9 6.52931e-05
*RES
1 *789:data_out[11] *648:7 5.625 
2 *648:7 *648:9 296.455 
3 *648:9 *648:23 44.1439 
4 *648:23 *648:25 104.663 
5 *648:25 *788:adc_data[11] 8.2723 
*END

*D_NET *649 0.168723
*CONN
*I *788:adc_data[1] I *D afe_wb
*I *789:data_out[1] O *D CF_ADC_SAR12
*CAP
1 *788:adc_data[1] 0.00496834
2 *789:data_out[1] 8.01873e-05
3 *649:14 0.0522953
4 *649:12 0.0473269
5 *649:10 0.0200029
6 *649:8 0.020083
7 *649:10 *789:test_sea 0
8 *649:10 *653:23 0.00127534
9 *649:10 *656:23 0.022073
10 *649:10 *691:9 0.000114104
11 *649:10 *692:17 0
12 *649:10 *692:33 0
13 *649:14 *698:15 0
14 *646:25 *788:adc_data[1] 0.000503621
*RES
1 *789:data_out[1] *649:8 6.9892 
2 *649:8 *649:10 88.1501 
3 *649:10 *649:12 3.41 
4 *649:12 *649:14 129.911 
5 *649:14 *788:adc_data[1] 27.8142 
*END

*D_NET *650 0.175426
*CONN
*I *788:adc_data[2] I *D afe_wb
*I *789:data_out[2] O *D CF_ADC_SAR12
*CAP
1 *788:adc_data[2] 0.0295024
2 *789:data_out[2] 0.000547705
3 *650:15 0.0295024
4 *650:13 0.0221558
5 *650:11 0.0227036
6 *650:11 *651:15 4.26145e-05
7 *650:11 *652:15 3.43988e-06
8 *650:11 *658:7 0
9 *650:13 *791:trimTC[4] 0.00170852
10 *650:13 *791:trimTC[0] 0.000879299
11 *650:13 *670:19 0.000417147
12 *650:13 *673:27 0.0039396
13 *650:13 *753:23 0.00534707
14 *2:22 *650:13 0.0138768
15 *18:26 *650:13 0.000618171
16 *18:30 *650:13 4.44804e-05
17 *22:14 *650:13 0.0160027
18 *22:20 *650:13 0.0119264
19 *23:20 *650:13 0.0158688
20 *25:16 *650:13 0.000316735
21 *646:7 *650:11 2.28027e-05
*RES
1 *789:data_out[2] *650:11 13.5261 
2 *650:11 *650:13 126.524 
3 *650:13 *650:15 3.41 
4 *650:15 *788:adc_data[2] 606.598 
*END

*D_NET *651 0.177554
*CONN
*I *788:adc_data[3] I *D afe_wb
*I *789:data_out[3] O *D CF_ADC_SAR12
*CAP
1 *788:adc_data[3] 0.00244795
2 *789:data_out[3] 0.000897949
3 *651:23 0.00244795
4 *651:21 0.0409474
5 *651:19 0.0409474
6 *651:17 0.0201647
7 *651:15 0.0210626
8 *651:15 *789:scan_test_mode 0.000424422
9 *651:15 *789:test_scanin 6.8057e-05
10 *651:15 *789:test_scanen 1.47728e-05
11 *651:15 *789:sel_csel_dft[0] 4.98422e-05
12 *651:15 *789:sel_csel_dft[2] 3.63957e-05
13 *651:15 *789:sof 0.000734614
14 *651:15 *652:15 3.62713e-05
15 *651:15 *654:15 0.000197191
16 *651:15 *655:19 0.00108009
17 *651:17 *789:test_scanen 0
18 *651:17 *701:9 0.0459539
19 *651:17 *731:17 0
20 *651:17 *733:17 0
21 *650:11 *651:15 4.26145e-05
*RES
1 *789:data_out[3] *651:15 11.1243 
2 *651:15 *651:17 96.2466 
3 *651:17 *651:19 3.41 
4 *651:19 *651:21 118.489 
5 *651:21 *651:23 3.41 
6 *651:23 *788:adc_data[3] 48.6339 
*END

*D_NET *652 0.21652
*CONN
*I *788:adc_data[4] I *D afe_wb
*I *789:data_out[4] O *D CF_ADC_SAR12
*CAP
1 *788:adc_data[4] 0.00603247
2 *789:data_out[4] 0.0013998
3 *652:21 0.0229672
4 *652:19 0.0169348
5 *652:17 0.0182176
6 *652:15 0.0196175
7 *788:adc_data[4] *788:adc_data[5] 6.97033e-05
8 *788:adc_data[4] *732:15 0
9 *788:adc_data[4] *763:15 0.000273665
10 *788:adc_data[4] *781:32 0.00152871
11 *652:15 *789:iso_en 0.000753895
12 *652:15 *653:23 4.59242e-05
13 *652:17 *687:9 0.0484285
14 *652:17 *747:9 0
15 *652:21 *758:15 0.00049307
16 *652:21 *781:32 0.000358099
17 *788:adc_data[10] *788:adc_data[4] 0.00300116
18 *646:23 *652:21 0.000549722
19 *646:25 *788:adc_data[4] 0.0204823
20 *647:11 *652:15 0.00208343
21 *647:17 *652:21 0.052761
22 *648:9 *652:15 0.000481316
23 *650:11 *652:15 3.43988e-06
24 *651:15 *652:15 3.62713e-05
*RES
1 *789:data_out[4] *652:15 43.3571 
2 *652:15 *652:17 594.821 
3 *652:17 *652:19 4.5 
4 *652:19 *652:21 511.875 
5 *652:21 *788:adc_data[4] 48.7651 
*END

*D_NET *653 0.149969
*CONN
*I *788:adc_data[5] I *D afe_wb
*I *789:data_out[5] O *D CF_ADC_SAR12
*CAP
1 *788:adc_data[5] 0.00663903
2 *789:data_out[5] 0.00526621
3 *653:37 0.0274696
4 *653:35 0.0212326
5 *653:25 0.0244666
6 *653:23 0.0293308
7 *788:adc_data[5] *665:21 3.05829e-05
8 *788:adc_data[5] *762:27 0.00174087
9 *788:adc_data[5] *763:15 0.00183222
10 *788:adc_data[5] *766:17 0.000263267
11 *653:23 *789:sof 0.000277359
12 *653:23 *789:test_sea 0
13 *653:23 *654:15 0.000277359
14 *653:23 *656:23 0.00032478
15 *653:25 *713:9 0.0178684
16 *653:37 *761:23 0
17 *653:37 *762:27 0.000278007
18 *653:37 *763:15 0.000650209
19 *653:37 *769:19 0
20 *653:37 *775:31 0
21 *653:37 *781:28 0.000643818
22 *788:adc_data[4] *788:adc_data[5] 6.97033e-05
23 *646:23 *653:37 0
24 *646:25 *788:adc_data[5] 0.00998661
25 *647:17 *653:37 0
26 *649:10 *653:23 0.00127534
27 *652:15 *653:23 4.59242e-05
*RES
1 *789:data_out[5] *653:23 30.844 
2 *653:23 *653:25 100.508 
3 *653:25 *653:35 12.8482 
4 *653:35 *653:37 400.982 
5 *653:37 *788:adc_data[5] 42.7351 
*END

*D_NET *654 0.204429
*CONN
*I *788:adc_data[6] I *D afe_wb
*I *789:data_out[6] O *D CF_ADC_SAR12
*CAP
1 *788:adc_data[6] 0.0030023
2 *789:data_out[6] 0.000843044
3 *654:23 0.0030023
4 *654:21 0.0252582
5 *654:19 0.0252582
6 *654:17 0.0173927
7 *654:15 0.0182358
8 *654:15 *789:test_scanin 0.0005757
9 *654:15 *789:test_scanen 4.73953e-05
10 *654:15 *789:sel_csel_dft[0] 1.20192e-05
11 *654:15 *789:sel_csel_dft[2] 2.4845e-05
12 *654:15 *789:sof 0.000390199
13 *654:15 *789:test_sea 4.65519e-05
14 *654:15 *789:reset_n 0.00123001
15 *654:15 *789:next 0.000320465
16 *654:15 *655:19 3.62059e-05
17 *654:15 *656:21 9.51615e-06
18 *654:15 *658:9 0.00120314
19 *654:17 *701:9 0.00526711
20 *654:17 *702:9 0.0450464
21 *654:21 *657:18 0.0567518
22 *651:15 *654:15 0.000197191
23 *653:23 *654:15 0.000277359
*RES
1 *789:data_out[6] *654:15 14.8941 
2 *654:15 *654:17 94.5421 
3 *654:17 *654:19 3.41 
4 *654:19 *654:21 103.499 
5 *654:21 *654:23 3.41 
6 *654:23 *788:adc_data[6] 60.7768 
*END

*D_NET *655 0.145768
*CONN
*I *788:adc_data[7] I *D afe_wb
*I *789:data_out[7] O *D CF_ADC_SAR12
*CAP
1 *788:adc_data[7] 0.000604747
2 *789:data_out[7] 0.00217068
3 *655:25 0.034244
4 *655:23 0.0336393
5 *655:21 0.033179
6 *655:19 0.0353497
7 *655:19 *789:scan_test_mode 2.56434e-05
8 *655:19 *789:test_scanin 0.000116297
9 *655:19 *789:sof 0.000450571
10 *655:19 *656:21 0.000130174
11 *655:19 *658:9 0
12 *655:21 *789:resolution[0] 0
13 *655:21 *702:9 0
14 *655:21 *705:17 0
15 *655:21 *706:17 0
16 *655:21 *733:9 0.00389941
17 *655:25 *732:15 0
18 *655:25 *754:17 0
19 *655:25 *768:15 0.000749427
20 *655:25 *774:15 0
21 *655:25 *777:17 0
22 *15:16 *655:19 9.27217e-05
23 *651:15 *655:19 0.00108009
24 *654:15 *655:19 3.62059e-05
*RES
1 *789:data_out[7] *655:19 21.5805 
2 *655:19 *655:21 102.532 
3 *655:21 *655:23 3.41 
4 *655:23 *655:25 97.1568 
5 *655:25 *788:adc_data[7] 15.0082 
*END

*D_NET *656 0.149455
*CONN
*I *788:adc_data[8] I *D afe_wb
*I *789:data_out[8] O *D CF_ADC_SAR12
*CAP
1 *788:adc_data[8] 0.00483056
2 *789:data_out[8] 0.00045632
3 *656:29 0.00483056
4 *656:27 0.0343559
5 *656:25 0.0343559
6 *656:23 0.0121946
7 *656:21 0.012651
8 *656:21 *789:sof 0.000268156
9 *656:21 *789:next 0.00041099
10 *656:23 *691:9 0.0225375
11 *656:27 *698:15 0
12 *647:11 *656:21 2.58773e-05
13 *648:7 *656:21 0
14 *649:10 *656:23 0.022073
15 *653:23 *656:23 0.00032478
16 *654:15 *656:21 9.51615e-06
17 *655:19 *656:21 0.000130174
*RES
1 *789:data_out[8] *656:21 17.8928 
2 *656:21 *656:23 87.7239 
3 *656:23 *656:25 3.41 
4 *656:25 *656:27 98.3099 
5 *656:27 *656:29 3.41 
6 *656:29 *788:adc_data[8] 97.8125 
*END

*D_NET *657 0.170695
*CONN
*I *788:adc_data[9] I *D afe_wb
*I *789:data_out[9] O *D CF_ADC_SAR12
*CAP
1 *788:adc_data[9] 0.00308083
2 *789:data_out[9] 0.0106269
3 *657:20 0.00308083
4 *657:18 0.0220069
5 *657:16 0.0220069
6 *657:14 0.0125239
7 *657:12 0.0231509
8 *657:12 *789:vrefhi 0
9 *657:12 *789:ibias2p5u_1 0
10 *657:12 *659:65 0.000151317
11 *657:12 *659:73 0
12 *657:12 *662:28 0
13 *657:12 *663:21 0
14 *657:12 *691:9 0.000713834
15 *657:14 *691:9 0.00895246
16 *15:16 *657:12 0.0076478
17 *654:21 *657:18 0.0567518
*RES
1 *789:data_out[9] *657:12 49.4482 
2 *657:12 *657:14 50.3057 
3 *657:14 *657:16 3.41 
4 *657:16 *657:18 94.2742 
5 *657:18 *657:20 3.41 
6 *657:20 *788:adc_data[9] 61.3839 
*END

*D_NET *658 0.170662
*CONN
*I *788:adc_eof I *D afe_wb
*I *789:eof O *D CF_ADC_SAR12
*CAP
1 *788:adc_eof 1.68788e-05
2 *789:eof 0.000221827
3 *658:13 0.031225
4 *658:11 0.0312081
5 *658:9 0.0129294
6 *658:7 0.0131512
7 *788:adc_eof *699:17 9.61096e-05
8 *788:adc_eof *763:15 0.000100938
9 *658:7 *789:reset_n 0
10 *658:9 *789:sample_width[4] 0.00214436
11 *658:9 *789:sample_width[8] 7.17926e-05
12 *658:9 *789:sample_width[9] 1.65144e-05
13 *658:9 *789:test_scanin 1.73197e-05
14 *658:9 *789:reset_n 0.000353137
15 *658:9 *789:cap_trim[2] 3.5867e-05
16 *658:9 *789:dft_inc[3] 0.00310893
17 *658:9 *789:dft_inc[2] 0.00392833
18 *658:9 *789:enable_hv 0.00237268
19 *658:9 *791:trimTC[2] 0.00100212
20 *658:9 *725:23 0.00859824
21 *658:9 *749:19 0.00471918
22 *658:9 *749:23 0.00054351
23 *658:9 *764:15 0.000386294
24 *658:13 *761:25 0.00854257
25 *658:13 *768:17 0.0178722
26 *658:13 *780:10 0
27 *658:13 *784:18 0.00590549
28 *2:36 *658:9 0.0108964
29 *5:10 *658:9 0.00609576
30 *18:61 *658:9 0.00385645
31 *646:7 *658:7 4.2002e-05
32 *648:23 *658:9 0
33 *650:11 *658:7 0
34 *654:15 *658:9 0.00120314
35 *655:19 *658:9 0
*RES
1 *789:eof *658:7 7.11536 
2 *658:7 *658:9 78.5636 
3 *658:9 *658:11 3.41 
4 *658:11 *658:13 105.408 
5 *658:13 *788:adc_eof 6.9751 
*END

*D_NET *659 0.185695
*CONN
*I *790:IREF_VCMBUF I *D CF_ADC_SAR12_sar_refs
*I *790:IREF_VREFBUF I *D CF_ADC_SAR12_sar_refs
*I *789:ibias2p5u_1 I *D CF_ADC_SAR12
*I *789:ibias2p5u I *D CF_ADC_SAR12
*I *792:ibias I *D CF_BUF_HIZ
*I *791:ibg_2p375uA O *D CF_BGR
*CAP
1 *790:IREF_VCMBUF 0.00019357
2 *790:IREF_VREFBUF 0.00031416
3 *789:ibias2p5u_1 0.000158409
4 *789:ibias2p5u 7.73557e-05
5 *792:ibias 0.000248639
6 *791:ibg_2p375uA 0.000100194
7 *659:114 0.0105749
8 *659:98 0.0315703
9 *659:73 0.000376461
10 *659:69 0.000188095
11 *659:65 0.021769
12 *659:57 0.0346531
13 *659:55 0.0340647
14 *659:48 9.90905e-05
15 *659:32 0.00570808
16 *659:28 0.0230047
17 *659:11 0.0175636
18 *790:IREF_VCMBUF *662:22 0.000162127
19 *659:11 *660:9 5.31137e-05
20 *659:28 *664:14 0.000510654
21 *659:114 *790:vref[4] 0
22 *659:114 *790:vref[1] 0.00013809
23 *659:114 *790:vref[0] 0
24 *659:114 *661:20 0
25 *659:114 *662:22 0
26 *13:20 *659:32 0.00335971
27 *14:16 *659:114 0.000405129
28 *15:22 *659:57 0.000213264
29 *15:22 *659:65 2.92604e-05
30 *17:20 *659:28 7.62761e-06
31 *657:12 *789:ibias2p5u_1 0
32 *657:12 *659:65 0.000151317
33 *657:12 *659:73 0
*RES
1 *791:ibg_2p375uA *659:11 5.66893 
2 *659:11 *659:28 49.0195 
3 *659:28 *659:32 19.08 
4 *659:32 *792:ibias 6.63321 
5 *792:ibias *659:48 1.62054 
6 *659:48 *659:55 3.68679 
7 *659:55 *659:57 71.985 
8 *659:57 *659:65 8.06438 
9 *659:65 *659:69 3.5331 
10 *659:69 *659:73 0.40655 
11 *659:73 *789:ibias2p5u 0.260067 
12 *659:73 *789:ibias2p5u_1 0.748083 
13 *659:65 *659:98 47.0529 
14 *659:98 *659:114 36.8509 
15 *659:114 *790:IREF_VREFBUF 0.400283 
16 *790:IREF_VREFBUF *790:IREF_VCMBUF 0.90945 
*END

*D_NET *660 0.055229
*CONN
*I *793:nbias I *D CF_REFBUF
*I *791:ibg_3uA O *D CF_BGR
*CAP
1 *793:nbias 6.75744e-05
2 *791:ibg_3uA 2.12993e-05
3 *660:30 0.0011835
4 *660:28 0.00234826
5 *660:22 0.0258333
6 *660:20 0.0249438
7 *660:9 0.000364123
8 *660:9 *664:7 6.5911e-05
9 *660:20 *664:7 5.90484e-05
10 *660:20 *664:14 0.000289067
11 *659:11 *660:9 5.31137e-05
*RES
1 *791:ibg_3uA *660:9 5.55357 
2 *660:9 *660:20 17.0261 
3 *660:20 *660:22 55.4869 
4 *660:22 *660:28 33.0796 
5 *660:28 *660:30 21.0714 
6 *660:30 *793:nbias 1.29464 
*END

*D_NET *661 0.109407
*CONN
*I *789:refby2 I *D CF_ADC_SAR12
*I *790:REFBY2 O *D CF_ADC_SAR12_sar_refs
*CAP
1 *789:refby2 0.000191129
2 *790:REFBY2 0.000100806
3 *661:26 0.00059661
4 *661:22 0.0375721
5 *661:20 0.0539587
6 *661:5 0.0168928
7 *789:refby2 *725:9 0
8 *789:refby2 *755:9 0
9 *661:5 *790:vref[1] 7.42665e-05
10 *661:26 *725:9 0
11 *661:26 *755:9 0
12 *14:16 *661:20 2.04311e-05
13 *659:114 *661:20 0
*RES
1 *790:REFBY2 *661:5 0.396367 
2 *661:5 *661:20 44.6018 
3 *661:20 *661:22 79.7321 
4 *661:22 *661:26 4.23698 
5 *661:26 *789:refby2 0.584367 
*END

*D_NET *662 0.0636085
*CONN
*I *789:vrefhi I *D CF_ADC_SAR12
*I *790:REFHI O *D CF_ADC_SAR12_sar_refs
*CAP
1 *789:vrefhi 0.000209473
2 *790:REFHI 0.000369718
3 *662:28 0.0157522
4 *662:22 0.0310176
5 *662:7 0.0158445
6 *662:22 *790:vref[4] 9.51703e-05
7 *662:22 *790:vref[3] 0.000157711
8 *790:IREF_VCMBUF *662:22 0.000162127
9 *657:12 *789:vrefhi 0
10 *657:12 *662:28 0
11 *659:114 *662:22 0
*RES
1 *790:REFHI *662:7 0.879683 
2 *662:7 *662:22 45.1924 
3 *662:22 *662:28 36.855 
4 *662:28 *789:vrefhi 0.811533 
*END

*D_NET *663 0.0977129
*CONN
*I *789:vinp I *D CF_ADC_SAR12
*I *792:vout O *D CF_BUF_HIZ
*CAP
1 *789:vinp 0.000109679
2 *792:vout 0
3 *663:21 0.000658603
4 *663:17 0.0378859
5 *663:15 0.037337
6 *663:13 0.0100358
7 *663:11 0.0105645
8 *663:4 0.000528654
9 *5:24 *663:17 0
10 *12:44 *663:13 0.000592775
11 *13:20 *663:17 0
12 *657:12 *663:21 0
*RES
1 *792:vout *663:4 3.41 
2 *663:4 *663:11 4.40931 
3 *663:11 *663:13 205.339 
4 *663:13 *663:15 3.41 
5 *663:15 *663:17 74.3529 
6 *663:17 *663:21 4.48429 
7 *663:21 *789:vinp 3.72177 
*END

*D_NET *664 0.0609532
*CONN
*I *793:ref_1v2 I *D CF_REFBUF
*I *791:Vout O *D CF_BGR
*CAP
1 *793:ref_1v2 0
2 *791:Vout 7.39239e-05
3 *664:24 0.0033846
4 *664:16 0.0291312
5 *664:14 0.0265558
6 *664:7 0.000883125
7 *659:28 *664:14 0.000510654
8 *660:9 *664:7 6.5911e-05
9 *660:20 *664:7 5.90484e-05
10 *660:20 *664:14 0.000289067
*RES
1 *791:Vout *664:7 2.33929 
2 *664:7 *664:14 21.9011 
3 *664:14 *664:16 54.2 
4 *664:16 *664:24 40.7057 
5 *664:24 *793:ref_1v2 3.41 
*END

*D_NET *665 0.121107
*CONN
*I *792:e_pd I *D CF_BUF_HIZ
*I *788:analog_ctrl[0] O *D afe_wb
*CAP
1 *792:e_pd 0.00203027
2 *788:analog_ctrl[0] 0.00320186
3 *665:29 0.0101739
4 *665:27 0.00825482
5 *665:21 0.00331304
6 *792:e_pd *792:en_pd 0.00455613
7 *665:21 *699:17 0.00247875
8 *665:21 *721:17 0.000763213
9 *665:21 *721:23 0.00200573
10 *665:21 *762:27 0.00130832
11 *665:21 *763:15 0.00252303
12 *665:21 *766:17 0.000189397
13 *665:21 *768:9 0.00219782
14 *665:21 *775:31 4.64974e-05
15 *665:21 *781:28 0.000536796
16 *665:27 *699:17 0.000273556
17 *665:27 *763:15 5.44456e-05
18 *665:27 *769:23 0.000184781
19 *665:29 *699:21 0.0384893
20 *788:adc_data[10] *665:27 6.58294e-06
21 *788:adc_data[5] *665:21 3.05829e-05
22 *648:25 *665:29 0.0384877
*RES
1 *788:analog_ctrl[0] *665:21 49.6589 
2 *665:21 *665:27 7.4075 
3 *665:27 *665:29 80.5862 
4 *665:29 *792:e_pd 23.3463 
*END

*D_NET *670 0.136316
*CONN
*I *793:pd I *D CF_REFBUF
*I *788:analog_ctrl[104] O *D afe_wb
*CAP
1 *793:pd 0.00218598
2 *788:analog_ctrl[104] 0.00541845
3 *670:21 0.00625427
4 *670:19 0.0046351
5 *670:9 0.0393605
6 *670:7 0.0442122
7 *793:pd *793:ch_cont 0.00340031
8 *670:7 *671:17 0
9 *670:7 *672:7 0
10 *670:9 *783:17 0.0264954
11 *3:10 *670:21 0.00269086
12 *4:18 *793:pd 0.000457611
13 *7:6 *793:pd 0.000123191
14 *22:14 *793:pd 0.000197485
15 *22:14 *670:19 0.000241856
16 *29:34 *670:21 0.000225681
17 *650:13 *670:19 0.000417147
*RES
1 *788:analog_ctrl[104] *670:7 18.9999 
2 *670:7 *670:9 156.012 
3 *670:9 *670:19 20.4528 
4 *670:19 *670:21 82.2679 
5 *670:21 *793:pd 39.1802 
*END

*D_NET *671 0.147158
*CONN
*I *793:switchon I *D CF_REFBUF
*I *788:analog_ctrl[105] O *D afe_wb
*CAP
1 *793:switchon 0.00232628
2 *788:analog_ctrl[105] 0.0118591
3 *671:19 0.06172
4 *671:17 0.0712528
5 *671:19 *695:9 0
6 *671:19 *776:11 0
7 *20:20 *671:19 0
8 *20:38 *671:19 0
9 *528:13 *671:19 0
10 *670:7 *671:17 0
*RES
1 *788:analog_ctrl[105] *671:17 49.0576 
2 *671:17 *671:19 185.735 
3 *671:19 *793:switchon 13.9145 
*END

*D_NET *672 0.152219
*CONN
*I *793:boost I *D CF_REFBUF
*I *788:analog_ctrl[106] O *D afe_wb
*CAP
1 *793:boost 0.0105748
2 *788:analog_ctrl[106] 0.0115671
3 *672:9 0.0511751
4 *672:7 0.0521674
5 *672:7 *673:7 0.00193272
6 *672:7 *674:5 0
7 *672:9 *726:9 0.0228341
8 *4:18 *793:boost 0.00139235
9 *22:14 *793:boost 0.000575021
10 *670:7 *672:7 0
*RES
1 *788:analog_ctrl[106] *672:7 40.6199 
2 *672:7 *672:9 157.61 
3 *672:9 *793:boost 45.036 
*END

*D_NET *673 0.192604
*CONN
*I *793:ch_cont I *D CF_REFBUF
*I *788:analog_ctrl[107] O *D afe_wb
*CAP
1 *793:ch_cont 0.0068409
2 *788:analog_ctrl[107] 0.0021665
3 *673:27 0.00989427
4 *673:9 0.0400241
5 *673:7 0.0391373
6 *673:7 *674:5 0.00193928
7 *673:7 *689:15 0.00251638
8 *673:9 *752:9 0.0663289
9 *673:27 *789:pumpclk 0.000280839
10 *673:27 *789:dft_inc[3] 0.00455
11 *673:27 *725:23 0.00550139
12 *793:pd *793:ch_cont 0.00340031
13 *18:30 *673:27 0.00414521
14 *23:10 *673:27 6.32918e-06
15 *650:13 *673:27 0.0039396
16 *672:7 *673:7 0.00193272
*RES
1 *788:analog_ctrl[107] *673:7 14.6759 
2 *673:7 *673:9 155.799 
3 *673:9 *673:27 40.8862 
4 *673:27 *793:ch_cont 37.3905 
*END

*D_NET *674 0.154934
*CONN
*I *790:sw_start I *D CF_ADC_SAR12_sar_refs
*I *788:analog_ctrl[108] O *D afe_wb
*CAP
1 *790:sw_start 0.000610753
2 *788:analog_ctrl[108] 0.0226763
3 *674:9 0.0191203
4 *674:7 0.0185095
5 *674:5 0.0226763
6 *790:sw_start *790:hiz 0
7 *790:sw_start *790:pd_ana 0
8 *790:sw_start *776:35 0
9 *790:sw_start *787:21 0.000149145
10 *674:5 *675:5 0.0160397
11 *674:5 *689:15 0.0138297
12 *674:9 *678:9 0.0393831
13 *672:7 *674:5 0
14 *673:7 *674:5 0.00193928
*RES
1 *788:analog_ctrl[108] *674:5 91.6923 
2 *674:5 *674:7 3.41 
3 *674:7 *674:9 82.2907 
4 *674:9 *790:sw_start 10.0325 
*END

*D_NET *675 0.174718
*CONN
*I *790:pd_vcmbuf I *D CF_ADC_SAR12_sar_refs
*I *788:analog_ctrl[109] O *D afe_wb
*CAP
1 *790:pd_vcmbuf 0.000422772
2 *788:analog_ctrl[109] 0.0142844
3 *675:9 0.0172654
4 *675:7 0.0168426
5 *675:5 0.0142844
6 *790:pd_vcmbuf *790:EN_RESVDA 0.000559752
7 *790:pd_vcmbuf *694:25 0.000228246
8 *790:pd_vcmbuf *747:13 0.000337545
9 *675:5 *678:5 0
10 *675:5 *683:10 0.0326877
11 *675:9 *679:9 0.0178184
12 *675:9 *689:19 0.0439469
13 *674:5 *675:5 0.0160397
*RES
1 *788:analog_ctrl[109] *675:5 91.2959 
2 *675:5 *675:7 3.41 
3 *675:7 *675:9 543.973 
4 *675:9 *790:pd_vcmbuf 16.9375 
*END

*D_NET *676 0.185213
*CONN
*I *789:reset_n I *D CF_ADC_SAR12
*I *788:analog_ctrl[10] O *D afe_wb
*CAP
1 *789:reset_n 0.00108651
2 *788:analog_ctrl[10] 0.0232667
3 *676:9 0.0103663
4 *676:7 0.00927978
5 *676:5 0.0232667
6 *789:reset_n *789:test_sea 0.000111185
7 *789:reset_n *789:iso_en 0.000563858
8 *789:reset_n *789:next 0.000267497
9 *676:5 *687:5 0.0112324
10 *676:5 *776:7 0
11 *676:5 *787:7 0.001965
12 *676:9 *693:9 0.0530885
13 *676:9 *742:9 0
14 *5:10 *789:reset_n 0.000575613
15 *647:13 *676:9 0.0485598
16 *654:15 *789:reset_n 0.00123001
17 *658:7 *789:reset_n 0
18 *658:9 *789:reset_n 0.000353137
*RES
1 *788:analog_ctrl[10] *676:5 81.1345 
2 *676:5 *676:7 3.41 
3 *676:7 *676:9 653.411 
4 *676:9 *789:reset_n 15.6585 
*END

*D_NET *677 0.126174
*CONN
*I *790:S_LV[0] I *D CF_ADC_SAR12_sar_refs
*I *788:analog_ctrl[110] O *D afe_wb
*CAP
1 *790:S_LV[0] 0.00232546
2 *788:analog_ctrl[110] 0.00161552
3 *677:14 0.0299256
4 *677:12 0.0276001
5 *677:10 0.0302623
6 *677:8 0.0318778
7 *790:S_LV[0] *790:S_LV[7] 0.000399356
8 *790:S_LV[0] *790:S_LV[2] 8.88194e-05
9 *790:S_LV[0] *790:S_LV[1] 0.000964774
10 *677:8 *683:8 0.000128615
11 *677:8 *686:13 0.000892291
12 *677:10 *783:15 9.30897e-05
*RES
1 *788:analog_ctrl[110] *677:8 12.3002 
2 *677:8 *677:10 86.0946 
3 *677:10 *677:12 3.41 
4 *677:12 *677:14 85.5933 
5 *677:14 *790:S_LV[0] 15.8482 
*END

*D_NET *678 0.168853
*CONN
*I *790:S_LV[1] I *D CF_ADC_SAR12_sar_refs
*I *788:analog_ctrl[111] O *D afe_wb
*CAP
1 *790:S_LV[1] 0.00029301
2 *788:analog_ctrl[111] 0.0234115
3 *678:9 0.0104131
4 *678:7 0.0101201
5 *678:5 0.0234115
6 *790:S_LV[1] *790:S_LV[2] 0.00117878
7 *678:5 *679:5 0.0160453
8 *678:5 *680:5 0
9 *678:5 *683:10 0
10 *678:9 *679:9 2.50628e-05
11 *678:9 *680:9 0.0436068
12 *790:S_LV[0] *790:S_LV[1] 0.000964774
13 *674:9 *678:9 0.0393831
14 *675:5 *678:5 0
*RES
1 *788:analog_ctrl[111] *678:5 91.5482 
2 *678:5 *678:7 3.41 
3 *678:7 *678:9 91.3461 
4 *678:9 *790:S_LV[1] 9.01568 
*END

*D_NET *679 0.178217
*CONN
*I *790:S_LV[2] I *D CF_ADC_SAR12_sar_refs
*I *788:analog_ctrl[112] O *D afe_wb
*CAP
1 *790:S_LV[2] 0.000407071
2 *788:analog_ctrl[112] 0.0163222
3 *679:9 0.0197853
4 *679:7 0.0193783
5 *679:5 0.0163222
6 *790:S_LV[2] *790:S_LV[7] 2.00778e-05
7 *790:S_LV[2] *790:S_LV[3] 0.00107425
8 *679:5 *680:5 0.0160518
9 *679:9 *680:9 0.0438098
10 *679:9 *683:14 0
11 *679:9 *689:19 0.00988918
12 *790:S_LV[1] *790:S_LV[2] 0.00117878
13 *790:S_LV[0] *790:S_LV[2] 8.88194e-05
14 *675:9 *679:9 0.0178184
15 *678:5 *679:5 0.0160453
16 *678:9 *679:9 2.50628e-05
*RES
1 *788:analog_ctrl[112] *679:5 91.2599 
2 *679:5 *679:7 3.41 
3 *679:7 *679:9 91.6657 
4 *679:9 *790:S_LV[2] 9.30395 
*END

*D_NET *680 0.179539
*CONN
*I *790:S_LV[3] I *D CF_ADC_SAR12_sar_refs
*I *788:analog_ctrl[113] O *D afe_wb
*CAP
1 *790:S_LV[3] 0.000374115
2 *788:analog_ctrl[113] 0.0165274
3 *680:9 0.00962884
4 *680:7 0.00925472
5 *680:5 0.0165274
6 *790:S_LV[3] *790:S_LV[7] 0.00104887
7 *790:S_LV[3] *790:S_LV[4] 2.02549e-05
8 *680:5 *681:5 0.0156913
9 *680:9 *746:9 0.00592346
10 *790:S_LV[2] *790:S_LV[3] 0.00107425
11 *678:5 *680:5 0
12 *678:9 *680:9 0.0436068
13 *679:5 *680:5 0.0160518
14 *679:9 *680:9 0.0438098
*RES
1 *788:analog_ctrl[113] *680:5 91.404 
2 *680:5 *680:7 3.41 
3 *680:7 *680:9 91.9853 
4 *680:9 *790:S_LV[3] 9.15982 
*END

*D_NET *681 0.121646
*CONN
*I *790:S_LV[4] I *D CF_ADC_SAR12_sar_refs
*I *788:analog_ctrl[114] O *D afe_wb
*CAP
1 *790:S_LV[4] 0.00127578
2 *788:analog_ctrl[114] 0.0158945
3 *681:9 0.0277075
4 *681:7 0.0264317
5 *681:5 0.0158945
6 *790:S_LV[4] *790:S_LV[7] 0.000813703
7 *790:S_LV[4] *790:S_LV[6] 0.00206432
8 *790:S_LV[4] *790:S_LV[5] 0.000180414
9 *681:5 *682:5 0.0156719
10 *790:S_LV[3] *790:S_LV[4] 2.02549e-05
11 *680:5 *681:5 0.0156913
*RES
1 *788:analog_ctrl[114] *681:5 89.1339 
2 *681:5 *681:7 3.41 
3 *681:7 *681:9 523.482 
4 *681:9 *790:S_LV[4] 12.3417 
*END

*D_NET *682 0.158743
*CONN
*I *790:S_LV[5] I *D CF_ADC_SAR12_sar_refs
*I *788:analog_ctrl[115] O *D afe_wb
*CAP
1 *790:S_LV[5] 0.00123019
2 *788:analog_ctrl[115] 0.022593
3 *682:9 0.0279855
4 *682:7 0.0267554
5 *682:5 0.022593
6 *790:S_LV[5] *790:S_LV[7] 1.48421e-05
7 *790:S_LV[5] *790:S_LV[6] 0.00100384
8 *682:5 *684:5 0
9 *682:9 *684:9 0
10 *682:9 *685:9 0.0400436
11 *790:S_LV[4] *790:S_LV[5] 0.000180414
12 *790:vssa_shield *790:S_LV[5] 8.80366e-05
13 *19:50 *790:S_LV[5] 0.00058332
14 *681:5 *682:5 0.0156719
*RES
1 *788:analog_ctrl[115] *682:5 88.9538 
2 *682:5 *682:7 3.41 
3 *682:7 *682:9 91.9853 
4 *682:9 *790:S_LV[5] 14.1677 
*END

*D_NET *683 0.152755
*CONN
*I *790:S_LV[6] I *D CF_ADC_SAR12_sar_refs
*I *788:analog_ctrl[116] O *D afe_wb
*CAP
1 *790:S_LV[6] 0.000652584
2 *788:analog_ctrl[116] 0.000495722
3 *683:14 0.0297009
4 *683:12 0.0290483
5 *683:10 0.020915
6 *683:8 0.0214107
7 *683:8 *686:13 0.000777532
8 *683:8 *689:13 0.000568463
9 *683:14 *745:9 0.0133017
10 *790:S_LV[5] *790:S_LV[6] 0.00100384
11 *790:S_LV[4] *790:S_LV[6] 0.00206432
12 *675:5 *683:10 0.0326877
13 *677:8 *683:8 0.000128615
14 *678:5 *683:10 0
15 *679:9 *683:14 0
*RES
1 *788:analog_ctrl[116] *683:8 9.63687 
2 *683:8 *683:10 90.2745 
3 *683:10 *683:12 3.41 
4 *683:12 *683:14 89.8546 
5 *683:14 *790:S_LV[6] 10.2126 
*END

*D_NET *684 0.13731
*CONN
*I *790:S_LV[7] I *D CF_ADC_SAR12_sar_refs
*I *788:analog_ctrl[117] O *D afe_wb
*CAP
1 *790:S_LV[7] 0.00136314
2 *788:analog_ctrl[117] 0.0223049
3 *684:9 0.0308342
4 *684:7 0.0294711
5 *684:5 0.0223049
6 *684:5 *685:5 0.0155077
7 *684:9 *685:9 0
8 *684:9 *744:9 0.0132275
9 *790:S_LV[5] *790:S_LV[7] 1.48421e-05
10 *790:S_LV[4] *790:S_LV[7] 0.000813703
11 *790:S_LV[3] *790:S_LV[7] 0.00104887
12 *790:S_LV[2] *790:S_LV[7] 2.00778e-05
13 *790:S_LV[0] *790:S_LV[7] 0.000399356
14 *19:50 *790:S_LV[7] 0
15 *682:5 *684:5 0
16 *682:9 *684:9 0
*RES
1 *788:analog_ctrl[117] *684:5 87.9448 
2 *684:5 *684:7 3.41 
3 *684:7 *684:9 93.4767 
4 *684:9 *790:S_LV[7] 13.6862 
*END

*D_NET *685 0.139832
*CONN
*I *790:refout_en I *D CF_ADC_SAR12_sar_refs
*I *788:analog_ctrl[118] O *D afe_wb
*CAP
1 *790:refout_en 0.00185138
2 *788:analog_ctrl[118] 0.02255
3 *685:9 0.0195818
4 *685:7 0.0177304
5 *685:5 0.02255
6 *790:refout_en *790:hiz 0
7 *685:5 *686:13 1.73465e-05
8 *685:5 *688:5 0
9 *682:9 *685:9 0.0400436
10 *684:5 *685:5 0.0155077
11 *684:9 *685:9 0
*RES
1 *788:analog_ctrl[118] *685:5 88.8096 
2 *685:5 *685:7 3.41 
3 *685:7 *685:9 84.9541 
4 *685:9 *790:refout_en 12.9152 
*END

*D_NET *686 0.122623
*CONN
*I *790:sw_holdb I *D CF_ADC_SAR12_sar_refs
*I *788:analog_ctrl[119] O *D afe_wb
*CAP
1 *790:sw_holdb 0.000135061
2 *788:analog_ctrl[119] 0.00314112
3 *686:19 0.0218974
4 *686:17 0.0217623
5 *686:15 0.0319585
6 *686:13 0.0350997
7 *686:13 *688:5 4.2137e-05
8 *686:13 *689:13 0.000274584
9 *686:13 *779:9 0.000488537
10 *686:13 *782:6 0.00112208
11 *686:13 *784:10 0.000169407
12 *686:15 *775:9 0.00075952
13 *686:19 *790:dft_comp_en 0.00408593
14 *677:8 *686:13 0.000892291
15 *683:8 *686:13 0.000777532
16 *685:5 *686:13 1.73465e-05
*RES
1 *788:analog_ctrl[119] *686:13 19.8656 
2 *686:13 *686:15 95.8957 
3 *686:15 *686:17 3.41 
4 *686:17 *686:19 71.8982 
5 *686:19 *790:sw_holdb 3.72177 
*END

*D_NET *687 0.160988
*CONN
*I *789:sof I *D CF_ADC_SAR12
*I *788:analog_ctrl[11] O *D afe_wb
*CAP
1 *789:sof 0.0018023
2 *788:analog_ctrl[11] 0.0206474
3 *687:9 0.0228061
4 *687:7 0.0210038
5 *687:5 0.0206474
6 *789:sof *789:sel_csel_dft[2] 0
7 *789:sof *789:hiz 1.83399e-05
8 *789:sof *789:test_sea 9.09612e-05
9 *789:sof *789:iso_en 0.00118442
10 *789:sof *789:next 0.000102394
11 *789:sof *691:9 0.000262992
12 *687:5 *691:5 0.01064
13 *687:9 *742:9 0
14 *687:9 *747:9 0
15 *651:15 *789:sof 0.000734614
16 *652:17 *687:9 0.0484285
17 *653:23 *789:sof 0.000277359
18 *654:15 *789:sof 0.000390199
19 *655:19 *789:sof 0.000450571
20 *656:21 *789:sof 0.000268156
21 *676:5 *687:5 0.0112324
*RES
1 *788:analog_ctrl[11] *687:5 82.1435 
2 *687:5 *687:7 3.41 
3 *687:7 *687:9 652.196 
4 *687:9 *789:sof 15.5118 
*END

*D_NET *688 0.124272
*CONN
*I *790:enpdb_hv I *D CF_ADC_SAR12_sar_refs
*I *788:analog_ctrl[120] O *D afe_wb
*CAP
1 *790:enpdb_hv 0.00123288
2 *788:analog_ctrl[120] 0.0312557
3 *688:9 0.0301272
4 *688:7 0.0288944
5 *688:5 0.0312557
6 *790:enpdb_hv *790:dft_comp_en 0.00146397
7 *688:5 *690:5 0
8 *688:9 *690:9 0
9 *685:5 *688:5 0
10 *686:13 *688:5 4.2137e-05
*RES
1 *788:analog_ctrl[120] *688:5 94.7191 
2 *688:5 *688:7 3.41 
3 *688:7 *688:9 81.7581 
4 *688:9 *790:enpdb_hv 14.3684 
*END

*D_NET *689 0.179655
*CONN
*I *790:PD_BUF_VREF I *D CF_ADC_SAR12_sar_refs
*I *788:analog_ctrl[121] O *D afe_wb
*CAP
1 *790:PD_BUF_VREF 0.000171252
2 *788:analog_ctrl[121] 0.00167307
3 *689:19 0.0107666
4 *689:17 0.0105953
5 *689:15 0.027239
6 *689:13 0.0289121
7 *790:PD_BUF_VREF *790:PWR_CTRL_VREF[1] 0.000138971
8 *790:PD_BUF_VREF *790:EN_RESVDA 0.000917417
9 *790:PD_BUF_VREF *742:13 0.00105554
10 *790:PD_BUF_VREF *747:13 0.000152449
11 *689:19 *746:9 0.027008
12 *673:7 *689:15 0.00251638
13 *674:5 *689:15 0.0138297
14 *675:9 *689:19 0.0439469
15 *679:9 *689:19 0.00988918
16 *683:8 *689:13 0.000568463
17 *686:13 *689:13 0.000274584
*RES
1 *788:analog_ctrl[121] *689:13 39.5772 
2 *689:13 *689:15 521.321 
3 *689:15 *689:17 4.5 
4 *689:17 *689:19 539.268 
5 *689:19 *790:PD_BUF_VREF 16.3571 
*END

*D_NET *690 0.127568
*CONN
*I *790:dft_comp_en I *D CF_ADC_SAR12_sar_refs
*I *788:analog_ctrl[122] O *D afe_wb
*CAP
1 *790:dft_comp_en 0.00577926
2 *788:analog_ctrl[122] 0.0308592
3 *690:9 0.0298162
4 *690:7 0.024037
5 *690:5 0.0308592
6 *790:enpdb_hv *790:dft_comp_en 0.00146397
7 *19:75 *790:dft_comp_en 0.000237142
8 *20:24 *790:dft_comp_en 0.000430407
9 *686:19 *790:dft_comp_en 0.00408593
10 *688:5 *690:5 0
11 *688:9 *690:9 0
*RES
1 *788:analog_ctrl[122] *690:5 93.4219 
2 *690:5 *690:7 3.41 
3 *690:7 *690:9 77.1771 
4 *690:9 *790:dft_comp_en 31.246 
*END

*D_NET *691 0.142045
*CONN
*I *789:next I *D CF_ADC_SAR12
*I *788:analog_ctrl[12] O *D afe_wb
*CAP
1 *789:next 0.000299938
2 *788:analog_ctrl[12] 0.0227052
3 *691:9 0.021875
4 *691:7 0.0215751
5 *691:5 0.0227052
6 *789:next *789:iso_en 7.01511e-05
7 *691:5 *692:11 0.000311476
8 *691:5 *693:5 0
9 *691:5 *700:15 0
10 *789:sof *789:next 0.000102394
11 *789:sof *691:9 0.000262992
12 *789:reset_n *789:next 0.000267497
13 *15:16 *691:9 0.0081703
14 *648:7 *789:next 1.02969e-05
15 *649:10 *691:9 0.000114104
16 *654:15 *789:next 0.000320465
17 *656:21 *789:next 0.00041099
18 *656:23 *691:9 0.0225375
19 *657:12 *691:9 0.000713834
20 *657:14 *691:9 0.00895246
21 *687:5 *691:5 0.01064
*RES
1 *788:analog_ctrl[12] *691:5 76.8466 
2 *691:5 *691:7 3.41 
3 *691:7 *691:9 115.316 
4 *691:9 *789:next 10.3954 
*END

*D_NET *692 0.178931
*CONN
*I *789:hiz I *D CF_ADC_SAR12
*I *790:hiz I *D CF_ADC_SAR12_sar_refs
*I *788:analog_ctrl[13] O *D afe_wb
*CAP
1 *789:hiz 2.96887e-05
2 *790:hiz 0.00423575
3 *788:analog_ctrl[13] 0.00193142
4 *692:33 0.0150447
5 *692:17 0.0263488
6 *692:13 0.0334745
7 *692:11 0.0283079
8 *789:hiz *789:sel_csel_dft[2] 0
9 *790:hiz *790:pd 0.000126667
10 *790:hiz *776:35 0.0115661
11 *692:11 *693:5 0.000359634
12 *692:11 *698:9 0.00285684
13 *692:11 *743:25 0.000787501
14 *692:11 *775:9 0.000220214
15 *692:17 *735:17 0.0166259
16 *692:33 *789:test_sea 0.00171942
17 *692:33 *731:17 0.000100121
18 *692:33 *735:17 0.0348663
19 *789:sof *789:hiz 1.83399e-05
20 *790:sw_start *790:hiz 0
21 *790:refout_en *790:hiz 0
22 *649:10 *692:17 0
23 *649:10 *692:33 0
24 *691:5 *692:11 0.000311476
*RES
1 *788:analog_ctrl[13] *692:11 44.8853 
2 *692:11 *692:13 72.2938 
3 *692:13 *692:17 38.0803 
4 *692:17 *790:hiz 27.5281 
5 *692:17 *692:33 74.7269 
6 *692:33 *789:hiz 7.48964 
*END

*D_NET *693 0.156328
*CONN
*I *789:iso_en I *D CF_ADC_SAR12
*I *788:analog_ctrl[14] O *D afe_wb
*CAP
1 *789:iso_en 0.000407521
2 *788:analog_ctrl[14] 0.0261534
3 *693:9 0.0208179
4 *693:7 0.0204104
5 *693:5 0.0261534
6 *693:5 *694:11 0.00080365
7 *693:5 *695:7 0
8 *693:5 *700:15 0.00514839
9 *693:5 *738:13 0
10 *693:9 *742:9 0
11 *789:sof *789:iso_en 0.00118442
12 *789:reset_n *789:iso_en 0.000563858
13 *789:next *789:iso_en 7.01511e-05
14 *647:11 *789:iso_en 0.000376948
15 *648:7 *789:iso_en 3.55956e-05
16 *652:15 *789:iso_en 0.000753895
17 *676:9 *693:9 0.0530885
18 *691:5 *693:5 0
19 *692:11 *693:5 0.000359634
*RES
1 *788:analog_ctrl[14] *693:5 81.0625 
2 *693:5 *693:7 3.41 
3 *693:7 *693:9 660.696 
4 *693:9 *789:iso_en 10.6355 
*END

*D_NET *694 0.167712
*CONN
*I *789:enable_hv I *D CF_ADC_SAR12
*I *790:enable_hv I *D CF_ADC_SAR12_sar_refs
*I *788:analog_ctrl[15] O *D afe_wb
*CAP
1 *789:enable_hv 0.00264904
2 *790:enable_hv 0.00020733
3 *788:analog_ctrl[15] 0.00298331
4 *694:39 0.0218655
5 *694:37 0.0192165
6 *694:25 0.0179511
7 *694:23 0.0178232
8 *694:21 0.00427551
9 *694:17 0.0196755
10 *694:15 0.0245145
11 *694:11 0.0120184
12 *789:enable_hv *789:trimunit 5.35508e-05
13 *789:enable_hv *789:cap_trim[1] 2.59996e-06
14 *789:enable_hv *789:cap_trim[0] 1.76998e-05
15 *789:enable_hv *789:pd 0.00013952
16 *789:enable_hv *789:pd_ana 7.62699e-05
17 *789:enable_hv *789:dft_inc[3] 0.000209956
18 *789:enable_hv *789:dft_inc[2] 0.00392833
19 *789:enable_hv *789:dft_inc[0] 0.000387103
20 *789:enable_hv *789:dft_outc[1] 5.11566e-05
21 *694:11 *695:7 0.00080365
22 *694:15 *706:13 0
23 *694:17 *787:17 0.00538047
24 *694:17 *787:35 0.0065147
25 *694:25 *790:EN_RESVDA 0.00010725
26 *694:25 *747:13 0.000957755
27 *789:refclk *789:enable_hv 0.000695217
28 *790:pd_vcmbuf *694:25 0.000228246
29 *646:9 *789:enable_hv 0.00109096
30 *648:9 *789:enable_hv 0.000711025
31 *658:9 *789:enable_hv 0.00237268
32 *693:5 *694:11 0.00080365
*RES
1 *788:analog_ctrl[15] *694:11 40.3381 
2 *694:11 *694:15 28.5722 
3 *694:15 *694:17 50.8634 
4 *694:17 *694:21 16.1407 
5 *694:21 *694:23 0.260067 
6 *694:23 *694:25 49.8811 
7 *694:25 *790:enable_hv 5.8475 
8 *694:21 *694:37 3.41 
9 *694:37 *694:39 60.9841 
10 *694:39 *789:enable_hv 22.5574 
*END

*D_NET *695 0.112277
*CONN
*I *789:trimunit I *D CF_ADC_SAR12
*I *788:analog_ctrl[16] O *D afe_wb
*CAP
1 *789:trimunit 0.00123327
2 *788:analog_ctrl[16] 0.00863225
3 *695:9 0.0291852
4 *695:7 0.0365841
5 *789:trimunit *789:pd 0.000143611
6 *789:trimunit *789:pd_ana 4.67396e-05
7 *789:trimunit *789:dft_inc[3] 2.32102e-06
8 *789:trimunit *789:dft_inc[0] 3.86171e-05
9 *789:trimunit *789:dft_outc[2] 9.32615e-05
10 *695:7 *696:7 0.00268344
11 *695:7 *738:13 0.0115107
12 *789:refclk *789:trimunit 0.000592014
13 *789:enable_hv *789:trimunit 5.35508e-05
14 *528:13 *695:9 0.0206742
15 *671:19 *695:9 0
16 *693:5 *695:7 0
17 *694:11 *695:7 0.00080365
*RES
1 *788:analog_ctrl[16] *695:7 38.0255 
2 *695:7 *695:9 116.488 
3 *695:9 *789:trimunit 12.1685 
*END

*D_NET *696 0.125569
*CONN
*I *789:dly_inc I *D CF_ADC_SAR12
*I *788:analog_ctrl[17] O *D afe_wb
*CAP
1 *789:dly_inc 0.00208067
2 *788:analog_ctrl[17] 0.00616754
3 *696:9 0.0256767
4 *696:7 0.0297636
5 *789:dly_inc *789:cap_trim[1] 1.2382e-05
6 *789:dly_inc *789:icont_lv[1] 0.000272057
7 *789:dly_inc *789:icont_lv[0] 3.18081e-05
8 *789:dly_inc *789:dcen 0.000810294
9 *789:dly_inc *789:dft_outc[0] 2.50452e-05
10 *696:7 *697:7 0.00316123
11 *696:7 *738:13 0.00206412
12 *696:9 *718:9 0.0516779
13 *696:9 *728:9 0.00114255
14 *695:7 *696:7 0.00268344
*RES
1 *788:analog_ctrl[17] *696:7 28.9451 
2 *696:7 *696:9 112.653 
3 *696:9 *789:dly_inc 21.5351 
*END

*D_NET *697 0.12576
*CONN
*I *789:dcen I *D CF_ADC_SAR12
*I *788:analog_ctrl[18] O *D afe_wb
*CAP
1 *789:dcen 0.00364527
2 *788:analog_ctrl[18] 0.00724691
3 *697:9 0.0268046
4 *697:7 0.0304063
5 *789:dcen *789:cap_trim[1] 0.000252203
6 *789:dcen *789:dft_outc[2] 2.95395e-05
7 *789:dcen *789:dft_outc[0] 2.51287e-05
8 *789:dcen *724:9 0
9 *697:7 *698:7 0.000301498
10 *697:7 *700:15 0
11 *697:9 *719:9 0.0530766
12 *697:9 *729:9 0
13 *789:dly_inc *789:dcen 0.000810294
14 *696:7 *697:7 0.00316123
*RES
1 *788:analog_ctrl[18] *697:7 26.639 
2 *697:7 *697:9 111.055 
3 *697:9 *789:dcen 26.2946 
*END

*D_NET *698 0.116434
*CONN
*I *789:pumpclk I *D CF_ADC_SAR12
*I *788:analog_ctrl[19] O *D afe_wb
*CAP
1 *789:pumpclk 0.000163159
2 *788:analog_ctrl[19] 0.000950026
3 *698:17 0.0187713
4 *698:15 0.0240365
5 *698:9 0.0112955
6 *698:7 0.00681715
7 *789:pumpclk *789:en_pump_lv 2.99583e-05
8 *789:pumpclk *789:dft_inc[3] 0.000280839
9 *698:7 *700:15 0.000349863
10 *698:9 *700:15 0
11 *698:9 *743:25 0.00124312
12 *698:9 *761:19 8.48844e-05
13 *698:9 *763:9 0.00605243
14 *698:9 *768:9 0
15 *698:9 *775:9 0.000506674
16 *698:17 *700:17 0.0424138
17 *649:14 *698:15 0
18 *656:27 *698:15 0
19 *673:27 *789:pumpclk 0.000280839
20 *692:11 *698:9 0.00285684
21 *697:7 *698:7 0.000301498
*RES
1 *788:analog_ctrl[19] *698:7 6.06393 
2 *698:7 *698:9 167.089 
3 *698:9 *698:15 21.965 
4 *698:15 *698:17 89.0023 
5 *698:17 *789:pumpclk 9.52229 
*END

*D_NET *699 0.119579
*CONN
*I *792:en_pd I *D CF_BUF_HIZ
*I *788:analog_ctrl[1] O *D afe_wb
*CAP
1 *792:en_pd 0.00216107
2 *788:analog_ctrl[1] 0.00276068
3 *699:21 0.0116949
4 *699:19 0.00953381
5 *699:17 0.00276068
6 *699:17 *710:11 0.000289117
7 *699:17 *710:19 0.00456993
8 *699:17 *758:9 0.00261764
9 *699:17 *761:9 0.000165345
10 *699:17 *763:15 0.00302824
11 *699:17 *768:9 0.000106932
12 *699:17 *769:23 6.89915e-05
13 *699:17 *775:9 0.000508347
14 *699:17 *775:31 0.000266889
15 *699:17 *781:28 0.000351953
16 *699:21 *721:25 0.0327583
17 *788:adc_eof *699:17 9.61096e-05
18 *792:e_pd *792:en_pd 0.00455613
19 *648:25 *699:21 4.2152e-05
20 *665:21 *699:17 0.00247875
21 *665:27 *699:17 0.000273556
22 *665:29 *699:21 0.0384893
*RES
1 *788:analog_ctrl[1] *699:17 49.7001 
2 *699:17 *699:19 3.41 
3 *699:19 *699:21 80.7993 
4 *699:21 *792:en_pd 19.386 
*END

*D_NET *700 0.114053
*CONN
*I *789:en_pump_lv I *D CF_ADC_SAR12
*I *788:analog_ctrl[20] O *D afe_wb
*CAP
1 *789:en_pump_lv 0.000153923
2 *788:analog_ctrl[20] 0.00546727
3 *700:17 0.0272101
4 *700:15 0.0325235
5 *789:en_pump_lv *789:dft_inc[3] 0.00016845
6 *700:15 *701:5 0.000445117
7 *700:15 *763:9 0
8 *789:pumpclk *789:en_pump_lv 2.99583e-05
9 *648:23 *789:en_pump_lv 0.000142307
10 *691:5 *700:15 0
11 *693:5 *700:15 0.00514839
12 *697:7 *700:15 0
13 *698:7 *700:15 0.000349863
14 *698:9 *700:15 0
15 *698:17 *700:17 0.0424138
*RES
1 *788:analog_ctrl[20] *700:15 43.7955 
2 *700:15 *700:17 115.636 
3 *700:17 *789:en_pump_lv 8.10848 
*END

*D_NET *701 0.154735
*CONN
*I *789:scan_test_mode I *D CF_ADC_SAR12
*I *788:analog_ctrl[21] O *D afe_wb
*CAP
1 *789:scan_test_mode 0.000221619
2 *788:analog_ctrl[21] 0.0198045
3 *701:9 0.0250676
4 *701:7 0.024846
5 *701:5 0.0198045
6 *789:scan_test_mode *789:test_scanin 0.000533846
7 *701:5 *702:5 0.0122273
8 *701:9 *789:test_scanen 0
9 *701:9 *702:9 0
10 *648:9 *789:scan_test_mode 0.000113332
11 *651:15 *789:scan_test_mode 0.000424422
12 *651:17 *701:9 0.0459539
13 *654:17 *701:9 0.00526711
14 *655:19 *789:scan_test_mode 2.56434e-05
15 *700:15 *701:5 0.000445117
*RES
1 *788:analog_ctrl[21] *701:5 72.8108 
2 *701:5 *701:7 3.41 
3 *701:7 *701:9 118.938 
4 *701:9 *789:scan_test_mode 8.29334 
*END

*D_NET *702 0.184902
*CONN
*I *789:test_scanin I *D CF_ADC_SAR12
*I *788:analog_ctrl[22] O *D afe_wb
*CAP
1 *789:test_scanin 0.000368181
2 *788:analog_ctrl[22] 0.0151047
3 *702:9 0.0160725
4 *702:7 0.0157043
5 *702:5 0.0151047
6 *789:test_scanin *789:test_scanen 4.57411e-05
7 *702:5 *703:5 0.0107491
8 *702:5 *704:5 0
9 *702:9 *706:17 0.0529644
10 *789:scan_test_mode *789:test_scanin 0.000533846
11 *646:9 *789:test_scanin 0.000203246
12 *651:15 *789:test_scanin 6.8057e-05
13 *654:15 *789:test_scanin 0.0005757
14 *654:17 *702:9 0.0450464
15 *655:19 *789:test_scanin 0.000116297
16 *655:21 *702:9 0
17 *658:9 *789:test_scanin 1.73197e-05
18 *701:5 *702:5 0.0122273
19 *701:9 *702:9 0
*RES
1 *788:analog_ctrl[22] *702:5 72.0902 
2 *702:5 *702:7 3.41 
3 *702:7 *702:9 119.471 
4 *702:9 *789:test_scanin 9.80132 
*END

*D_NET *703 0.161497
*CONN
*I *789:test_scanen I *D CF_ADC_SAR12
*I *788:analog_ctrl[23] O *D afe_wb
*CAP
1 *789:test_scanen 0.00624628
2 *788:analog_ctrl[23] 0.0126398
3 *703:9 0.0287788
4 *703:7 0.0225325
5 *703:5 0.0126398
6 *789:test_scanen *789:sel_csel_dft[0] 0
7 *789:test_scanen *789:sel_csel_dft[2] 4.55901e-06
8 *789:test_scanen *789:test_sea 0
9 *789:test_scanen *731:17 0.000318765
10 *789:test_scanen *733:17 0.00174875
11 *703:5 *704:5 0.0107556
12 *703:9 *716:9 0.0530785
13 *789:test_scanin *789:test_scanen 4.57411e-05
14 *18:61 *703:9 0.00189638
15 *651:15 *789:test_scanen 1.47728e-05
16 *651:17 *789:test_scanen 0
17 *654:15 *789:test_scanen 4.73953e-05
18 *701:9 *789:test_scanen 0
19 *702:5 *703:5 0.0107491
*RES
1 *788:analog_ctrl[23] *703:5 63.298 
2 *703:5 *703:7 3.41 
3 *703:7 *703:9 111.055 
4 *703:9 *789:test_scanen 35.771 
*END

*D_NET *704 0.160651
*CONN
*I *789:test_sea I *D CF_ADC_SAR12
*I *788:analog_ctrl[24] O *D afe_wb
*CAP
1 *789:test_sea 0.00550408
2 *788:analog_ctrl[24] 0.0185377
3 *704:9 0.02842
4 *704:7 0.0229159
5 *704:5 0.0185377
6 *704:5 *705:7 0.000902673
7 *704:9 *789:sample_width[0] 0.000351826
8 *704:9 *734:9 0.0527572
9 *789:test_scanen *789:test_sea 0
10 *789:sof *789:test_sea 9.09612e-05
11 *789:reset_n *789:test_sea 0.000111185
12 *649:10 *789:test_sea 0
13 *653:23 *789:test_sea 0
14 *654:15 *789:test_sea 4.65519e-05
15 *692:33 *789:test_sea 0.00171942
16 *702:5 *704:5 0
17 *703:5 *704:5 0.0107556
*RES
1 *788:analog_ctrl[24] *704:5 67.622 
2 *704:5 *704:7 3.41 
3 *704:7 *704:9 110.416 
4 *704:9 *789:test_sea 33.9537 
*END

*D_NET *705 0.147769
*CONN
*I *789:resolution[0] I *D CF_ADC_SAR12
*I *788:analog_ctrl[25] O *D afe_wb
*CAP
1 *789:resolution[0] 0.0011067
2 *788:analog_ctrl[25] 0.00229583
3 *705:17 0.0173907
4 *705:15 0.016284
5 *705:13 0.0216945
6 *705:11 0.0216945
7 *705:9 0.010253
8 *705:7 0.0125489
9 *789:resolution[0] *706:17 0.000601205
10 *705:7 *706:7 0.00022203
11 *705:7 *707:5 0
12 *705:9 *725:9 0.00526023
13 *705:13 *717:15 0
14 *705:13 *733:15 0
15 *705:13 *787:17 0
16 *705:17 *706:17 0.0375146
17 *655:21 *789:resolution[0] 0
18 *655:21 *705:17 0
19 *704:5 *705:7 0.000902673
*RES
1 *788:analog_ctrl[25] *705:7 10.3879 
2 *705:7 *705:9 206.554 
3 *705:9 *705:11 3.41 
4 *705:11 *705:13 64.871 
5 *705:13 *705:15 3.41 
6 *705:15 *705:17 78.4461 
7 *705:17 *789:resolution[0] 7.593 
*END

*D_NET *706 0.177683
*CONN
*I *789:resolution[1] I *D CF_ADC_SAR12
*I *788:analog_ctrl[26] O *D afe_wb
*CAP
1 *789:resolution[1] 4.68101e-05
2 *788:analog_ctrl[26] 0.00054675
3 *706:17 0.0144207
4 *706:15 0.0143739
5 *706:13 0.0244092
6 *706:11 0.0244092
7 *706:9 0.00172169
8 *706:7 0.00226844
9 *706:7 *707:5 0.000224221
10 *706:9 *749:9 0.00386493
11 *706:9 *768:9 0
12 *706:13 *743:15 9.4739e-05
13 *706:13 *776:7 0
14 *789:resolution[0] *706:17 0.000601205
15 *655:21 *706:17 0
16 *694:15 *706:13 0
17 *702:9 *706:17 0.0529644
18 *705:7 *706:7 0.00022203
19 *705:17 *706:17 0.0375146
*RES
1 *788:analog_ctrl[26] *706:7 5.055 
2 *706:7 *706:9 48.6964 
3 *706:9 *706:11 3.41 
4 *706:11 *706:13 70.348 
5 *706:13 *706:15 3.41 
6 *706:15 *706:17 110.842 
7 *706:17 *789:resolution[1] 6.92027 
*END

*D_NET *707 0.127829
*CONN
*I *789:sample_width[0] I *D CF_ADC_SAR12
*I *788:analog_ctrl[27] O *D afe_wb
*CAP
1 *789:sample_width[0] 0.0056532
2 *788:analog_ctrl[27] 0.0171225
3 *707:9 0.0419316
4 *707:7 0.0362784
5 *707:5 0.0171225
6 *789:sample_width[0] *789:sample_width[7] 0
7 *789:sample_width[0] *734:9 0.000435345
8 *707:5 *708:5 0.00870955
9 *707:5 *709:5 0
10 *707:5 *739:13 0
11 *707:9 *711:9 0
12 *704:9 *789:sample_width[0] 0.000351826
13 *705:7 *707:5 0
14 *706:7 *707:5 0.000224221
*RES
1 *788:analog_ctrl[27] *707:5 60.7036 
2 *707:5 *707:7 3.41 
3 *707:7 *707:9 109.563 
4 *707:9 *789:sample_width[0] 31.4076 
*END

*D_NET *708 0.133288
*CONN
*I *789:sample_width[1] I *D CF_ADC_SAR12
*I *788:analog_ctrl[28] O *D afe_wb
*CAP
1 *789:sample_width[1] 0.0033441
2 *788:analog_ctrl[28] 0.0101662
3 *708:9 0.0418829
4 *708:7 0.0385388
5 *708:5 0.0101662
6 *789:sample_width[1] *789:sample_width[4] 0.000283506
7 *789:sample_width[1] *789:sample_width[5] 0.00189481
8 *789:sample_width[1] *789:sample_width[6] 0.00958569
9 *708:5 *709:5 0.00871611
10 *707:5 *708:5 0.00870955
*RES
1 *788:analog_ctrl[28] *708:5 51.1908 
2 *708:5 *708:7 3.41 
3 *708:7 *708:9 121.495 
4 *708:9 *789:sample_width[1] 23.9311 
*END

*D_NET *709 0.141511
*CONN
*I *789:sample_width[2] I *D CF_ADC_SAR12
*I *788:analog_ctrl[29] O *D afe_wb
*CAP
1 *789:sample_width[2] 0.00117953
2 *788:analog_ctrl[29] 0.011119
3 *709:9 0.0424533
4 *709:7 0.0412738
5 *709:5 0.011119
6 *789:sample_width[2] *789:sample_width[3] 0.00172874
7 *789:sample_width[2] *789:sample_width[4] 0.000760471
8 *789:sample_width[2] *789:sample_width[6] 0.00584448
9 *789:sample_width[2] *789:sample_width[8] 0.00340875
10 *709:5 *711:5 0.009832
11 *709:5 *739:13 0.00407539
12 *707:5 *709:5 0
13 *708:5 *709:5 0.00871611
*RES
1 *788:analog_ctrl[29] *709:5 57.6768 
2 *709:5 *709:7 3.41 
3 *709:7 *709:9 122.241 
4 *709:9 *789:sample_width[2] 17.8211 
*END

*D_NET *710 0.101435
*CONN
*I *792:tp I *D CF_BUF_HIZ
*I *788:analog_ctrl[2] O *D afe_wb
*CAP
1 *792:tp 0.0065814
2 *788:analog_ctrl[2] 0.00145378
3 *710:21 0.0237071
4 *710:19 0.0183655
5 *710:11 0.00269356
6 *792:tp *792:clk2_boost 0.000597928
7 *792:tp *792:e_n_boost 0.000149192
8 *792:tp *721:35 0.0157879
9 *710:11 *721:17 0.000140683
10 *710:11 *758:9 0.00286605
11 *710:11 *761:19 0.00251126
12 *710:11 *763:9 0.000200012
13 *710:11 *775:9 0.000544852
14 *710:19 *743:25 0.00457418
15 *710:19 *761:23 0.000386351
16 *710:19 *763:15 2.79405e-05
17 *710:19 *769:23 4.70002e-05
18 *710:21 *721:25 0.00385652
19 *710:21 *743:31 0.0117025
20 *22:32 *792:tp 1.54201e-05
21 *24:40 *792:tp 0.000366724
22 *699:17 *710:11 0.000289117
23 *699:17 *710:19 0.00456993
*RES
1 *788:analog_ctrl[2] *710:11 44.597 
2 *710:11 *710:19 11.1164 
3 *710:19 *710:21 68.4414 
4 *710:21 *792:tp 47.8942 
*END

*D_NET *711 0.138662
*CONN
*I *789:sample_width[3] I *D CF_ADC_SAR12
*I *788:analog_ctrl[30] O *D afe_wb
*CAP
1 *789:sample_width[3] 0.000799293
2 *788:analog_ctrl[30] 0.0141423
3 *711:9 0.0397546
4 *711:7 0.0389553
5 *711:5 0.0141423
6 *789:sample_width[3] *789:sample_width[4] 0.00568463
7 *789:sample_width[3] *789:sample_width[8] 0.00350765
8 *711:5 *712:7 0.00633409
9 *711:5 *713:5 0
10 *711:5 *739:13 0.00025451
11 *789:sample_width[2] *789:sample_width[3] 0.00172874
12 *646:9 *789:sample_width[3] 0.00228676
13 *648:9 *789:sample_width[3] 0.00123958
14 *707:9 *711:9 0
15 *709:5 *711:5 0.009832
*RES
1 *788:analog_ctrl[30] *711:5 59.8388 
2 *711:5 *711:7 3.41 
3 *711:7 *711:9 122.773 
4 *711:9 *789:sample_width[3] 16.2802 
*END

*D_NET *712 0.14025
*CONN
*I *789:sample_width[4] I *D CF_ADC_SAR12
*I *788:analog_ctrl[31] O *D afe_wb
*CAP
1 *789:sample_width[4] 0.00375049
2 *788:analog_ctrl[31] 0.0114135
3 *712:9 0.0428515
4 *712:7 0.0505145
5 *789:sample_width[4] *789:sample_width[6] 0.000757111
6 *789:sample_width[4] *789:sample_width[8] 5.918e-05
7 *712:7 *713:5 0.00633657
8 *789:sample_width[1] *789:sample_width[4] 0.000283506
9 *789:sample_width[3] *789:sample_width[4] 0.00568463
10 *789:sample_width[2] *789:sample_width[4] 0.000760471
11 *18:61 *789:sample_width[4] 0.00385645
12 *646:9 *789:sample_width[4] 0.00376001
13 *648:9 *789:sample_width[4] 0.00174346
14 *658:9 *789:sample_width[4] 0.00214436
15 *711:5 *712:7 0.00633409
*RES
1 *788:analog_ctrl[31] *712:7 49.2679 
2 *712:7 *712:9 123.306 
3 *712:9 *789:sample_width[4] 31.025 
*END

*D_NET *713 0.133828
*CONN
*I *789:sample_width[5] I *D CF_ADC_SAR12
*I *788:analog_ctrl[32] O *D afe_wb
*CAP
1 *789:sample_width[5] 0.000821222
2 *788:analog_ctrl[32] 0.0178025
3 *713:9 0.0322414
4 *713:7 0.0314201
5 *713:5 0.0178025
6 *789:sample_width[5] *789:sample_width[6] 0.000244413
7 *713:5 *714:5 0.00739576
8 *713:5 *715:5 0
9 *789:sample_width[1] *789:sample_width[5] 0.00189481
10 *653:25 *713:9 0.0178684
11 *711:5 *713:5 0
12 *712:7 *713:5 0.00633657
*RES
1 *788:analog_ctrl[32] *713:5 65.3159 
2 *713:5 *713:7 3.41 
3 *713:7 *713:9 123.093 
4 *713:9 *789:sample_width[5] 10.4531 
*END

*D_NET *714 0.139043
*CONN
*I *789:sample_width[6] I *D CF_ADC_SAR12
*I *788:analog_ctrl[33] O *D afe_wb
*CAP
1 *789:sample_width[6] 0.00173421
2 *788:analog_ctrl[33] 0.0118562
3 *714:9 0.0410869
4 *714:7 0.0393527
5 *714:5 0.0118562
6 *789:sample_width[6] *789:sample_width[8] 0.000244413
7 *714:5 *715:5 0.00908477
8 *789:sample_width[1] *789:sample_width[6] 0.00958569
9 *789:sample_width[4] *789:sample_width[6] 0.000757111
10 *789:sample_width[5] *789:sample_width[6] 0.000244413
11 *789:sample_width[2] *789:sample_width[6] 0.00584448
12 *713:5 *714:5 0.00739576
*RES
1 *788:analog_ctrl[33] *714:5 53.3528 
2 *714:5 *714:7 3.41 
3 *714:7 *714:9 123.732 
4 *714:9 *789:sample_width[6] 22.5916 
*END

*D_NET *715 0.158295
*CONN
*I *789:sample_width[7] I *D CF_ADC_SAR12
*I *788:analog_ctrl[34] O *D afe_wb
*CAP
1 *789:sample_width[7] 0.00551829
2 *788:analog_ctrl[34] 0.0130735
3 *715:9 0.0283477
4 *715:7 0.0228294
5 *715:5 0.0130735
6 *789:sample_width[7] *717:17 0.00339758
7 *715:5 *716:5 0.0107758
8 *715:9 *716:9 0.0521944
9 *789:sample_width[0] *789:sample_width[7] 0
10 *18:65 *789:sample_width[7] 0
11 *713:5 *715:5 0
12 *714:5 *715:5 0.00908477
*RES
1 *788:analog_ctrl[34] *715:5 63.0098 
2 *715:5 *715:7 3.41 
3 *715:7 *715:9 109.244 
4 *715:9 *789:sample_width[7] 33.5304 
*END

*D_NET *716 0.19279
*CONN
*I *789:sample_width[8] I *D CF_ADC_SAR12
*I *788:analog_ctrl[35] O *D afe_wb
*CAP
1 *789:sample_width[8] 0.00102057
2 *788:analog_ctrl[35] 0.0124597
3 *716:9 0.0162378
4 *716:7 0.0152172
5 *716:5 0.0124597
6 *789:sample_width[8] *789:sample_width[9] 0
7 *716:5 *717:5 0.0106095
8 *789:sample_width[3] *789:sample_width[8] 0.00350765
9 *789:sample_width[4] *789:sample_width[8] 5.918e-05
10 *789:sample_width[6] *789:sample_width[8] 0.000244413
11 *789:sample_width[2] *789:sample_width[8] 0.00340875
12 *18:61 *716:9 0.00144469
13 *658:9 *789:sample_width[8] 7.17926e-05
14 *703:9 *716:9 0.0530785
15 *715:5 *716:5 0.0107758
16 *715:9 *716:9 0.0521944
*RES
1 *788:analog_ctrl[35] *716:5 63.1539 
2 *716:5 *716:7 3.41 
3 *716:7 *716:9 124.798 
4 *716:9 *789:sample_width[8] 15.3983 
*END

*D_NET *717 0.140695
*CONN
*I *789:sample_width[9] I *D CF_ADC_SAR12
*I *788:analog_ctrl[36] O *D afe_wb
*CAP
1 *789:sample_width[9] 0.00018229
2 *788:analog_ctrl[36] 0.0149717
3 *717:17 0.0323904
4 *717:15 0.0348539
5 *717:9 0.0138715
6 *717:7 0.0112257
7 *717:5 0.0149717
8 *717:5 *718:7 0.00420396
9 *789:sample_width[7] *717:17 0.00339758
10 *789:sample_width[8] *789:sample_width[9] 0
11 *658:9 *789:sample_width[9] 1.65144e-05
12 *705:13 *717:15 0
13 *716:5 *717:5 0.0106095
*RES
1 *788:analog_ctrl[36] *717:5 62.1089 
2 *717:5 *717:7 3.41 
3 *717:7 *717:9 227.196 
4 *717:9 *717:15 14.2538 
5 *717:15 *717:17 85.4867 
6 *717:17 *789:sample_width[9] 7.71681 
*END

*D_NET *718 0.16554
*CONN
*I *789:cap_trim[0] I *D CF_ADC_SAR12
*I *788:analog_ctrl[37] O *D afe_wb
*CAP
1 *789:cap_trim[0] 0.00411852
2 *788:analog_ctrl[37] 0.00613858
3 *718:9 0.0168858
4 *718:7 0.0189058
5 *789:cap_trim[0] *789:cap_trim[1] 0.000372401
6 *789:cap_trim[0] *789:dft_inc[0] 1.77148e-05
7 *789:cap_trim[0] *724:9 0.00437521
8 *718:7 *719:7 0.00315551
9 *718:7 *731:13 0
10 *718:9 *728:9 0.0556713
11 *789:enable_hv *789:cap_trim[0] 1.76998e-05
12 *696:9 *718:9 0.0516779
13 *717:5 *718:7 0.00420396
*RES
1 *788:analog_ctrl[37] *718:7 28.801 
2 *718:7 *718:9 116.594 
3 *718:9 *789:cap_trim[0] 28.3493 
*END

*D_NET *719 0.137849
*CONN
*I *789:cap_trim[1] I *D CF_ADC_SAR12
*I *788:analog_ctrl[38] O *D afe_wb
*CAP
1 *789:cap_trim[1] 0.00145752
2 *788:analog_ctrl[38] 0.00577558
3 *719:9 0.0295575
4 *719:7 0.0338755
5 *789:cap_trim[1] *789:cap_trim[2] 0.000113373
6 *789:cap_trim[1] *789:dft_inc[0] 0.000414471
7 *789:cap_trim[1] *789:icont_lv[1] 0.00307271
8 *789:cap_trim[1] *789:icont_lv[0] 0.00210815
9 *789:cap_trim[1] *789:dft_outc[0] 0.000523044
10 *719:7 *720:7 0.00171635
11 *719:7 *731:13 0.00210169
12 *789:cap_trim[0] *789:cap_trim[1] 0.000372401
13 *789:dly_inc *789:cap_trim[1] 1.2382e-05
14 *789:dcen *789:cap_trim[1] 0.000252203
15 *789:enable_hv *789:cap_trim[1] 2.59996e-06
16 *646:9 *789:cap_trim[1] 0.000261127
17 *697:9 *719:9 0.0530766
18 *718:7 *719:7 0.00315551
*RES
1 *788:analog_ctrl[38] *719:7 26.4948 
2 *719:7 *719:9 125.756 
3 *719:9 *789:cap_trim[1] 15.7413 
*END

*D_NET *720 0.120755
*CONN
*I *789:cap_trim[2] I *D CF_ADC_SAR12
*I *788:analog_ctrl[39] O *D afe_wb
*CAP
1 *789:cap_trim[2] 0.00105663
2 *788:analog_ctrl[39] 0.00526536
3 *720:9 0.0453308
4 *720:7 0.0495396
5 *789:cap_trim[2] *789:dft_inc[3] 0.00431698
6 *789:cap_trim[2] *789:dft_inc[1] 0.000587646
7 *789:cap_trim[2] *789:dft_inc[0] 0.000364777
8 *789:cap_trim[2] *789:dft_outc[0] 0.00264017
9 *789:cap_trim[2] *725:23 0.00309776
10 *720:7 *722:7 0.00145258
11 *720:7 *723:7 0
12 *720:7 *731:13 0.00508058
13 *720:7 *735:13 0
14 *720:9 *723:9 0
15 *789:cap_trim[1] *789:cap_trim[2] 0.000113373
16 *648:9 *789:cap_trim[2] 0.000156184
17 *658:9 *789:cap_trim[2] 3.5867e-05
18 *719:7 *720:7 0.00171635
*RES
1 *788:analog_ctrl[39] *720:7 24.3328 
2 *720:7 *720:9 126.928 
3 *720:9 *789:cap_trim[2] 18.7462 
*END

*D_NET *721 0.110694
*CONN
*I *792:clk2_boost I *D CF_BUF_HIZ
*I *788:analog_ctrl[3] O *D afe_wb
*CAP
1 *792:clk2_boost 0.000509348
2 *788:analog_ctrl[3] 0.00130755
3 *721:35 0.00538121
4 *721:25 0.0174605
5 *721:23 0.0136237
6 *721:17 0.00234259
7 *792:clk2_boost *792:e_na_boost 6.37335e-06
8 *792:clk2_boost *792:e_n_boost 1.5469e-05
9 *721:17 *732:9 5.80891e-05
10 *721:17 *743:15 0
11 *721:17 *754:11 9.93992e-05
12 *721:17 *762:13 0.00280251
13 *721:17 *763:15 0.000763213
14 *721:17 *766:17 0.00046173
15 *721:17 *769:9 0.00275379
16 *721:17 *775:31 0.000100988
17 *721:23 *762:27 0.00184033
18 *721:23 *766:17 0.000626238
19 *721:23 *769:19 0.000166563
20 *721:23 *784:16 0.00176298
21 *792:tp *792:clk2_boost 0.000597928
22 *792:tp *721:35 0.0157879
23 *22:32 *721:35 2.93046e-05
24 *23:34 *792:clk2_boost 6.44469e-06
25 *24:40 *792:clk2_boost 0.000220804
26 *26:42 *721:35 0.00244422
27 *665:21 *721:17 0.000763213
28 *665:21 *721:23 0.00200573
29 *699:21 *721:25 0.0327583
30 *710:11 *721:17 0.000140683
31 *710:21 *721:25 0.00385652
*RES
1 *788:analog_ctrl[3] *721:17 49.3212 
2 *721:17 *721:23 12.3801 
3 *721:23 *721:25 68.8675 
4 *721:25 *721:35 37.9733 
5 *721:35 *792:clk2_boost 13.125 
*END

*D_NET *722 0.143311
*CONN
*I *789:icont_lv[0] I *D CF_ADC_SAR12
*I *788:analog_ctrl[40] O *D afe_wb
*CAP
1 *789:icont_lv[0] 0.00346841
2 *788:analog_ctrl[40] 0.00226599
3 *722:9 0.0302297
4 *722:7 0.0290272
5 *789:icont_lv[0] *789:icont_lv[1] 0.00123397
6 *789:icont_lv[0] *789:dft_outc[0] 0.00126762
7 *722:7 *723:7 0.00145915
8 *722:9 *755:9 0.0604286
9 *789:cap_trim[1] *789:icont_lv[0] 0.00210815
10 *789:dly_inc *789:icont_lv[0] 3.18081e-05
11 *646:9 *789:icont_lv[0] 0.00048863
12 *648:23 *789:icont_lv[0] 0.00984957
13 *720:7 *722:7 0.00145258
*RES
1 *788:analog_ctrl[40] *722:7 12.658 
2 *722:7 *722:9 126.715 
3 *722:9 *789:icont_lv[0] 27.3229 
*END

*D_NET *723 0.105136
*CONN
*I *789:icont_lv[1] I *D CF_ADC_SAR12
*I *788:analog_ctrl[41] O *D afe_wb
*CAP
1 *789:icont_lv[1] 0.00189711
2 *788:analog_ctrl[41] 0.00487108
3 *723:9 0.0424578
4 *723:7 0.0454318
5 *723:7 *724:7 0.00224188
6 *723:7 *735:13 0.0021988
7 *789:cap_trim[1] *789:icont_lv[1] 0.00307271
8 *789:icont_lv[0] *789:icont_lv[1] 0.00123397
9 *789:dly_inc *789:icont_lv[1] 0.000272057
10 *720:7 *723:7 0
11 *720:9 *723:9 0
12 *722:7 *723:7 0.00145915
*RES
1 *788:analog_ctrl[41] *723:7 23.3239 
2 *723:7 *723:9 126.928 
3 *723:9 *789:icont_lv[1] 22.8636 
*END

*D_NET *724 0.113385
*CONN
*I *789:dft_inc[0] I *D CF_ADC_SAR12
*I *788:analog_ctrl[42] O *D afe_wb
*CAP
1 *789:dft_inc[0] 0.00048921
2 *788:analog_ctrl[42] 0.00735578
3 *724:9 0.0418336
4 *724:7 0.0487001
5 *789:dft_inc[0] *789:pd_ana 0.000133706
6 *789:dft_inc[0] *789:dft_inc[3] 9.24091e-05
7 *789:dft_inc[0] *789:dft_inc[1] 0.000140681
8 *789:dft_inc[0] *789:dft_outc[2] 9.27352e-05
9 *789:dft_inc[0] *789:dft_outc[1] 3.70747e-05
10 *724:7 *725:7 0.00107649
11 *724:7 *726:7 0
12 *724:7 *735:13 0.0055936
13 *724:9 *730:9 0
14 *789:trimunit *789:dft_inc[0] 3.86171e-05
15 *789:cap_trim[2] *789:dft_inc[0] 0.000364777
16 *789:cap_trim[1] *789:dft_inc[0] 0.000414471
17 *789:cap_trim[0] *789:dft_inc[0] 1.77148e-05
18 *789:cap_trim[0] *724:9 0.00437521
19 *789:dcen *724:9 0
20 *789:enable_hv *789:dft_inc[0] 0.000387103
21 *723:7 *724:7 0.00224188
*RES
1 *788:analog_ctrl[42] *724:7 32.8367 
2 *724:7 *724:9 128.1 
3 *724:9 *789:dft_inc[0] 10.4917 
*END

*D_NET *725 0.125376
*CONN
*I *789:dft_inc[1] I *D CF_ADC_SAR12
*I *788:analog_ctrl[43] O *D afe_wb
*CAP
1 *789:dft_inc[1] 0.00162484
2 *788:analog_ctrl[43] 0.00175457
3 *725:23 0.00341035
4 *725:9 0.0439023
5 *725:7 0.0438714
6 *789:dft_inc[1] *789:dft_inc[2] 0.000218464
7 *789:dft_inc[1] *789:dft_outc[0] 0.000241009
8 *725:7 *726:7 0.00108305
9 *725:9 *727:9 0
10 *725:23 *789:dft_inc[3] 0.000360444
11 *725:23 *791:trimTC[2] 0.001005
12 *725:23 *748:19 0.00237304
13 *725:23 *749:19 0.00126863
14 *789:refby2 *725:9 0
15 *789:cap_trim[2] *789:dft_inc[1] 0.000587646
16 *789:cap_trim[2] *725:23 0.00309776
17 *789:dft_inc[0] *789:dft_inc[1] 0.000140681
18 *646:9 *789:dft_inc[1] 0
19 *648:9 *789:dft_inc[1] 0
20 *658:9 *725:23 0.00859824
21 *661:26 *725:9 0
22 *673:27 *725:23 0.00550139
23 *705:9 *725:9 0.00526023
24 *724:7 *725:7 0.00107649
*RES
1 *788:analog_ctrl[43] *725:7 10.3519 
2 *725:7 *725:9 128.633 
3 *725:9 *725:23 30.5456 
4 *725:23 *789:dft_inc[1] 37.4062 
*END

*D_NET *726 0.120784
*CONN
*I *789:dft_inc[2] I *D CF_ADC_SAR12
*I *788:analog_ctrl[44] O *D afe_wb
*CAP
1 *789:dft_inc[2] 0.00056224
2 *788:analog_ctrl[44] 0.01205
3 *726:9 0.0318439
4 *726:7 0.0433317
5 *789:dft_inc[2] *789:dft_inc[3] 0.000135519
6 *726:7 *727:7 0.000868649
7 *726:7 *728:7 0
8 *726:7 *735:13 0
9 *789:dft_inc[1] *789:dft_inc[2] 0.000218464
10 *789:enable_hv *789:dft_inc[2] 0.00392833
11 *658:9 *789:dft_inc[2] 0.00392833
12 *672:9 *726:9 0.0228341
13 *724:7 *726:7 0
14 *725:7 *726:7 0.00108305
*RES
1 *788:analog_ctrl[44] *726:7 40.1875 
2 *726:7 *726:9 129.165 
3 *726:9 *789:dft_inc[2] 16.2462 
*END

*D_NET *727 0.119416
*CONN
*I *789:dft_inc[3] I *D CF_ADC_SAR12
*I *788:analog_ctrl[45] O *D afe_wb
*CAP
1 *789:dft_inc[3] 0.00329659
2 *788:analog_ctrl[45] 0.00156541
3 *727:9 0.0448746
4 *727:7 0.0431434
5 *789:dft_inc[3] *789:dft_outc[0] 0.000377521
6 *789:dft_inc[3] *748:19 0.00311618
7 *727:7 *728:7 0.000875211
8 *789:en_pump_lv *789:dft_inc[3] 0.00016845
9 *789:trimunit *789:dft_inc[3] 2.32102e-06
10 *789:cap_trim[2] *789:dft_inc[3] 0.00431698
11 *789:pumpclk *789:dft_inc[3] 0.000280839
12 *789:dft_inc[2] *789:dft_inc[3] 0.000135519
13 *789:dft_inc[0] *789:dft_inc[3] 9.24091e-05
14 *789:enable_hv *789:dft_inc[3] 0.000209956
15 *646:9 *789:dft_inc[3] 0.00245769
16 *648:23 *789:dft_inc[3] 0.00561457
17 *658:9 *789:dft_inc[3] 0.00310893
18 *673:27 *789:dft_inc[3] 0.00455
19 *725:9 *727:9 0
20 *725:23 *789:dft_inc[3] 0.000360444
21 *726:7 *727:7 0.000868649
*RES
1 *788:analog_ctrl[45] *727:7 9.19883 
2 *727:7 *727:9 129.272 
3 *727:9 *789:dft_inc[3] 44.2529 
*END

*D_NET *728 0.1405
*CONN
*I *789:dft_outc[0] I *D CF_ADC_SAR12
*I *788:analog_ctrl[46] O *D afe_wb
*CAP
1 *789:dft_outc[0] 0.000952426
2 *788:analog_ctrl[46] 0.00672152
3 *728:9 0.0260499
4 *728:7 0.0318189
5 *789:dft_outc[0] *789:pd_ana 6.87592e-05
6 *789:dft_outc[0] *789:dft_outc[1] 0.000130707
7 *728:7 *729:7 0.00413934
8 *728:7 *730:7 0
9 *728:9 *729:9 0.00722982
10 *789:cap_trim[2] *789:dft_outc[0] 0.00264017
11 *789:cap_trim[1] *789:dft_outc[0] 0.000523044
12 *789:dft_inc[3] *789:dft_outc[0] 0.000377521
13 *789:dft_inc[1] *789:dft_outc[0] 0.000241009
14 *789:icont_lv[0] *789:dft_outc[0] 0.00126762
15 *789:dly_inc *789:dft_outc[0] 2.50452e-05
16 *789:dcen *789:dft_outc[0] 2.51287e-05
17 *648:9 *789:dft_outc[0] 0.000572788
18 *648:23 *789:dft_outc[0] 2.72228e-05
19 *696:9 *728:9 0.00114255
20 *718:9 *728:9 0.0556713
21 *726:7 *728:7 0
22 *727:7 *728:7 0.000875211
*RES
1 *788:analog_ctrl[46] *728:7 28.6568 
2 *728:7 *728:9 129.805 
3 *728:9 *789:dft_outc[0] 32.6039 
*END

*D_NET *729 0.118171
*CONN
*I *789:dft_outc[1] I *D CF_ADC_SAR12
*I *788:analog_ctrl[47] O *D afe_wb
*CAP
1 *789:dft_outc[1] 0.00377896
2 *788:analog_ctrl[47] 0.00511105
3 *729:9 0.0460556
4 *729:7 0.0473876
5 *789:dft_outc[1] *789:pd_ana 5.11566e-05
6 *789:dft_outc[1] *789:dft_outc[2] 5.2325e-05
7 *729:7 *730:7 0.00414591
8 *789:dft_inc[0] *789:dft_outc[1] 3.70747e-05
9 *789:dft_outc[0] *789:dft_outc[1] 0.000130707
10 *789:enable_hv *789:dft_outc[1] 5.11566e-05
11 *697:9 *729:9 0
12 *728:7 *729:7 0.00413934
13 *728:9 *729:9 0.00722982
*RES
1 *788:analog_ctrl[47] *729:7 28.0803 
2 *729:7 *729:9 130.231 
3 *729:9 *789:dft_outc[1] 10.5599 
*END

*D_NET *730 0.108885
*CONN
*I *789:dft_outc[2] I *D CF_ADC_SAR12
*I *788:analog_ctrl[48] O *D afe_wb
*CAP
1 *789:dft_outc[2] 0.00293091
2 *788:analog_ctrl[48] 0.00716729
3 *730:9 0.0422427
4 *730:7 0.0464791
5 *789:dft_outc[2] *789:pd_ana 0.000174866
6 *789:dft_outc[2] *787:35 0.0033727
7 *730:7 *731:11 0.00210359
8 *730:7 *733:5 0
9 *789:trimunit *789:dft_outc[2] 9.32615e-05
10 *789:dft_inc[0] *789:dft_outc[2] 9.27352e-05
11 *789:dft_outc[1] *789:dft_outc[2] 5.2325e-05
12 *789:dcen *789:dft_outc[2] 2.95395e-05
13 *724:9 *730:9 0
14 *728:7 *730:7 0
15 *729:7 *730:7 0.00414591
*RES
1 *788:analog_ctrl[48] *730:7 31.6836 
2 *730:7 *730:9 123.413 
3 *730:9 *789:dft_outc[2] 24.182 
*END

*D_NET *731 0.165552
*CONN
*I *789:sel_csel_dft[0] I *D CF_ADC_SAR12
*I *788:analog_ctrl[49] O *D afe_wb
*CAP
1 *789:sel_csel_dft[0] 7.03106e-05
2 *788:analog_ctrl[49] 0.004175
3 *731:17 0.0213941
4 *731:15 0.0213238
5 *731:13 0.020189
6 *731:11 0.024364
7 *789:sel_csel_dft[0] *789:sel_csel_dft[2] 1.37751e-05
8 *731:11 *733:5 0.00210676
9 *731:17 *733:17 0.0400421
10 *731:17 *735:17 0.0221064
11 *789:test_scanen *789:sel_csel_dft[0] 0
12 *789:test_scanen *731:17 0.000318765
13 *651:15 *789:sel_csel_dft[0] 4.98422e-05
14 *651:17 *731:17 0
15 *654:15 *789:sel_csel_dft[0] 1.20192e-05
16 *692:33 *731:17 0.000100121
17 *718:7 *731:13 0
18 *719:7 *731:13 0.00210169
19 *720:7 *731:13 0.00508058
20 *730:7 *731:11 0.00210359
*RES
1 *788:analog_ctrl[49] *731:11 44.7253 
2 *731:11 *731:13 61.5559 
3 *731:13 *731:15 3.41 
4 *731:15 *731:17 126.502 
5 *731:17 *789:sel_csel_dft[0] 7.57268 
*END

*D_NET *732 0.109996
*CONN
*I *792:e_n_boost I *D CF_BUF_HIZ
*I *788:analog_ctrl[4] O *D afe_wb
*CAP
1 *792:e_n_boost 0.000389276
2 *788:analog_ctrl[4] 0.00180191
3 *732:17 0.0166309
4 *732:15 0.0241295
5 *732:9 0.00968985
6 *792:e_n_boost *792:e_na_boost 5.63716e-05
7 *732:9 *743:15 5.80891e-05
8 *732:9 *764:9 0.00356731
9 *732:9 *769:9 0
10 *732:9 *774:9 0.000495414
11 *732:15 *743:25 0
12 *732:15 *758:15 0.000419182
13 *732:15 *768:15 0
14 *732:15 *769:23 0
15 *732:15 *774:15 0.0148462
16 *732:15 *781:32 0.00168001
17 *732:17 *743:37 0.00493252
18 *732:17 *754:19 0.0309073
19 *788:adc_data[4] *732:15 0
20 *792:tp *792:e_n_boost 0.000149192
21 *792:clk2_boost *792:e_n_boost 1.5469e-05
22 *22:32 *792:e_n_boost 1.10113e-05
23 *23:34 *732:17 7.67776e-05
24 *24:40 *792:e_n_boost 8.21311e-05
25 *655:25 *732:15 0
26 *721:17 *732:9 5.80891e-05
*RES
1 *788:analog_ctrl[4] *732:9 48.4925 
2 *732:9 *732:15 40.0537 
3 *732:15 *732:17 67.8022 
4 *732:17 *792:e_n_boost 17.3456 
*END

*D_NET *733 0.15768
*CONN
*I *789:sel_csel_dft[1] I *D CF_ADC_SAR12
*I *788:analog_ctrl[50] O *D afe_wb
*CAP
1 *789:sel_csel_dft[1] 0.000124995
2 *788:analog_ctrl[50] 0.0181015
3 *733:17 0.0169692
4 *733:15 0.0180518
5 *733:9 0.0140494
6 *733:7 0.0128418
7 *733:5 0.0181015
8 *733:5 *734:5 0.0116425
9 *789:test_scanen *733:17 0.00174875
10 *651:17 *733:17 0
11 *655:21 *733:9 0.00389941
12 *705:13 *733:15 0
13 *730:7 *733:5 0
14 *731:11 *733:5 0.00210676
15 *731:17 *733:17 0.0400421
*RES
1 *788:analog_ctrl[50] *733:5 70.7569 
2 *733:5 *733:7 3.41 
3 *733:7 *733:9 261.196 
4 *733:9 *733:15 10.3622 
5 *733:15 *733:17 83.7822 
6 *733:17 *789:sel_csel_dft[1] 7.09495 
*END

*D_NET *734 0.186229
*CONN
*I *789:sel_csel_dft[2] I *D CF_ADC_SAR12
*I *788:analog_ctrl[51] O *D afe_wb
*CAP
1 *789:sel_csel_dft[2] 0.00420666
2 *788:analog_ctrl[51] 0.0169017
3 *734:9 0.0426178
4 *734:7 0.0384111
5 *734:5 0.0169017
6 *734:5 *735:11 0.00227502
7 *734:5 *736:5 0
8 *789:test_scanen *789:sel_csel_dft[2] 4.55901e-06
9 *789:sel_csel_dft[0] *789:sel_csel_dft[2] 1.37751e-05
10 *789:hiz *789:sel_csel_dft[2] 0
11 *789:sof *789:sel_csel_dft[2] 0
12 *789:sample_width[0] *734:9 0.000435345
13 *651:15 *789:sel_csel_dft[2] 3.63957e-05
14 *654:15 *789:sel_csel_dft[2] 2.4845e-05
15 *704:9 *734:9 0.0527572
16 *733:5 *734:5 0.0116425
*RES
1 *788:analog_ctrl[51] *734:5 67.4779 
2 *734:5 *734:7 3.41 
3 *734:7 *734:9 131.935 
4 *734:9 *789:sel_csel_dft[2] 9.93816 
*END

*D_NET *735 0.168787
*CONN
*I *789:sel_csel_dft[3] I *D CF_ADC_SAR12
*I *788:analog_ctrl[52] O *D afe_wb
*CAP
1 *789:sel_csel_dft[3] 3.37826e-05
2 *788:analog_ctrl[52] 0.00452294
3 *735:17 0.0187905
4 *735:15 0.0187567
5 *735:13 0.0181096
6 *735:11 0.0226325
7 *735:11 *736:5 0.00227502
8 *692:17 *735:17 0.0166259
9 *692:33 *735:17 0.0348663
10 *720:7 *735:13 0
11 *723:7 *735:13 0.0021988
12 *724:7 *735:13 0.0055936
13 *726:7 *735:13 0
14 *731:17 *735:17 0.0221064
15 *734:5 *735:11 0.00227502
*RES
1 *788:analog_ctrl[52] *735:11 46.4855 
2 *735:11 *735:13 60.8352 
3 *735:13 *735:15 3.41 
4 *735:15 *735:17 125.969 
5 *735:17 *789:sel_csel_dft[3] 6.89128 
*END

*D_NET *736 0.120189
*CONN
*I *790:vref[0] I *D CF_ADC_SAR12_sar_refs
*I *788:analog_ctrl[53] O *D afe_wb
*CAP
1 *790:vref[0] 0.000973223
2 *788:analog_ctrl[53] 0.0297569
3 *736:9 0.0184973
4 *736:7 0.0175241
5 *736:5 0.0297569
6 *790:vref[0] *790:vref[4] 0.000628192
7 *790:vref[0] *790:vref[1] 0.000474548
8 *736:5 *737:5 0.0203025
9 *659:114 *790:vref[0] 0
10 *734:5 *736:5 0
11 *735:11 *736:5 0.00227502
*RES
1 *788:analog_ctrl[53] *736:5 117.06 
2 *736:5 *736:7 3.41 
3 *736:7 *736:9 51.0765 
4 *736:9 *790:vref[0] 6.98983 
*END

*D_NET *737 0.131928
*CONN
*I *790:vref[1] I *D CF_ADC_SAR12_sar_refs
*I *788:analog_ctrl[54] O *D afe_wb
*CAP
1 *790:vref[1] 0.000428776
2 *788:analog_ctrl[54] 0.0307957
3 *737:9 0.0109653
4 *737:7 0.0105366
5 *737:5 0.0307957
6 *790:vref[1] *790:vref[4] 0
7 *737:5 *738:11 0.00273176
8 *737:5 *739:5 0
9 *737:9 *740:9 0.0246846
10 *790:vref[0] *790:vref[1] 0.000474548
11 *659:114 *790:vref[1] 0.00013809
12 *661:5 *790:vref[1] 7.42665e-05
13 *736:5 *737:5 0.0203025
*RES
1 *788:analog_ctrl[54] *737:5 119.51 
2 *737:5 *737:7 3.41 
3 *737:7 *737:9 51.6091 
4 *737:9 *790:vref[1] 5.34405 
*END

*D_NET *738 0.128257
*CONN
*I *790:vref[2] I *D CF_ADC_SAR12_sar_refs
*I *788:analog_ctrl[55] O *D afe_wb
*CAP
1 *790:vref[2] 0.00924681
2 *788:analog_ctrl[55] 0.00914605
3 *738:13 0.0420545
4 *738:11 0.0419537
5 *790:vref[2] *790:vref[4] 3.83153e-05
6 *790:vref[2] *790:vref[3] 0.00636052
7 *738:11 *739:5 0.00225122
8 *738:11 *783:17 0.000898826
9 *693:5 *738:13 0
10 *695:7 *738:13 0.0115107
11 *696:7 *738:13 0.00206412
12 *737:5 *738:11 0.00273176
*RES
1 *788:analog_ctrl[55] *738:11 39.9785 
2 *738:11 *738:13 104.544 
3 *738:13 *790:vref[2] 42.5823 
*END

*D_NET *739 0.123091
*CONN
*I *790:vref[3] I *D CF_ADC_SAR12_sar_refs
*I *788:analog_ctrl[56] O *D afe_wb
*CAP
1 *790:vref[3] 0.0101519
2 *788:analog_ctrl[56] 0.014404
3 *739:13 0.0332691
4 *739:11 0.0268545
5 *739:5 0.0181413
6 *739:5 *740:5 0.00717055
7 *790:vref[2] *790:vref[3] 0.00636052
8 *662:22 *790:vref[3] 0.000157711
9 *707:5 *739:13 0
10 *709:5 *739:13 0.00407539
11 *711:5 *739:13 0.00025451
12 *737:5 *739:5 0
13 *738:11 *739:5 0.00225122
*RES
1 *788:analog_ctrl[56] *739:5 51.335 
2 *739:5 *739:11 18.4791 
3 *739:11 *739:13 70.2399 
4 *739:13 *790:vref[3] 47.9677 
*END

*D_NET *740 0.137043
*CONN
*I *790:vref[4] I *D CF_ADC_SAR12_sar_refs
*I *788:analog_ctrl[57] O *D afe_wb
*CAP
1 *790:vref[4] 0.00086914
2 *788:analog_ctrl[57] 0.0345424
3 *740:9 0.0117242
4 *740:7 0.010855
5 *740:5 0.0345424
6 *740:5 *741:5 0.011893
7 *790:vref[2] *790:vref[4] 3.83153e-05
8 *790:vref[1] *790:vref[4] 0
9 *790:vref[0] *790:vref[4] 0.000628192
10 *659:114 *790:vref[4] 0
11 *662:22 *790:vref[4] 9.51703e-05
12 *737:9 *740:9 0.0246846
13 *739:5 *740:5 0.00717055
*RES
1 *788:analog_ctrl[57] *740:5 119.366 
2 *740:5 *740:7 3.41 
3 *740:7 *740:9 52.6745 
4 *740:9 *790:vref[4] 6.45873 
*END

*D_NET *741 0.109413
*CONN
*I *790:PWR_CTRL_VREF[0] I *D CF_ADC_SAR12_sar_refs
*I *788:analog_ctrl[58] O *D afe_wb
*CAP
1 *790:PWR_CTRL_VREF[0] 9.2002e-05
2 *788:analog_ctrl[58] 0.0180987
3 *741:13 0.00177859
4 *741:11 0.00168659
5 *741:9 0.0203844
6 *741:7 0.0203844
7 *741:5 0.0180987
8 *741:5 *742:5 0.0142044
9 *741:5 *744:5 0
10 *741:13 *790:PWR_CTRL_VREF[1] 6.48137e-05
11 *741:13 *742:13 0.00272707
12 *740:5 *741:5 0.011893
*RES
1 *788:analog_ctrl[58] *741:5 84.8099 
2 *741:5 *741:7 3.41 
3 *741:7 *741:9 418.295 
4 *741:9 *741:11 4.5 
5 *741:11 *741:13 48.1786 
6 *741:13 *790:PWR_CTRL_VREF[0] 5.66071 
*END

*D_NET *742 0.109241
*CONN
*I *790:PWR_CTRL_VREF[1] I *D CF_ADC_SAR12_sar_refs
*I *788:analog_ctrl[59] O *D afe_wb
*CAP
1 *790:PWR_CTRL_VREF[1] 5.27547e-05
2 *788:analog_ctrl[59] 0.0150945
3 *742:13 0.00179401
4 *742:11 0.00174126
5 *742:9 0.0205622
6 *742:7 0.0205622
7 *742:5 0.0150945
8 *742:5 *744:5 0.0142044
9 *742:13 *747:13 0.00194495
10 *790:PD_BUF_VREF *790:PWR_CTRL_VREF[1] 0.000138971
11 *790:PD_BUF_VREF *742:13 0.00105554
12 *647:13 *742:9 0
13 *676:9 *742:9 0
14 *687:9 *742:9 0
15 *693:9 *742:9 0
16 *741:5 *742:5 0.0142044
17 *741:13 *790:PWR_CTRL_VREF[1] 6.48137e-05
18 *741:13 *742:13 0.00272707
*RES
1 *788:analog_ctrl[59] *742:5 81.5669 
2 *742:5 *742:7 3.41 
3 *742:7 *742:9 421.33 
4 *742:9 *742:11 4.5 
5 *742:11 *742:13 65.8393 
6 *742:13 *790:PWR_CTRL_VREF[1] 1.95089 
*END

*D_NET *743 0.0955299
*CONN
*I *792:e_na_boost I *D CF_BUF_HIZ
*I *788:analog_ctrl[5] O *D afe_wb
*CAP
1 *792:e_na_boost 5.13426e-05
2 *788:analog_ctrl[5] 0.00135436
3 *743:37 0.0120973
4 *743:35 0.0211559
5 *743:31 0.0143243
6 *743:25 0.0080707
7 *743:15 0.00421062
8 *743:15 *754:9 1.31751e-05
9 *743:15 *758:9 0.000513811
10 *743:15 *763:9 0.000281548
11 *743:15 *775:9 0.000121805
12 *743:25 *758:15 0.00362678
13 *743:25 *763:15 1.95404e-05
14 *743:25 *769:23 0.000277359
15 *743:25 *775:9 0.000395434
16 *743:37 *792:clk1_boostr 0.000396888
17 *743:37 *754:19 0.00440945
18 *792:clk2_boost *792:e_na_boost 6.37335e-06
19 *792:e_n_boost *792:e_na_boost 5.63716e-05
20 *12:44 *743:37 9.39568e-05
21 *24:40 *792:e_na_boost 5.8203e-05
22 *24:40 *743:37 2.2776e-05
23 *647:17 *743:25 0.000579185
24 *692:11 *743:25 0.000787501
25 *698:9 *743:25 0.00124312
26 *706:13 *743:15 9.4739e-05
27 *710:19 *743:25 0.00457418
28 *710:21 *743:31 0.0117025
29 *721:17 *743:15 0
30 *732:9 *743:15 5.80891e-05
31 *732:15 *743:25 0
32 *732:17 *743:37 0.00493252
*RES
1 *788:analog_ctrl[5] *743:15 23.3745 
2 *743:15 *743:25 48.3416 
3 *743:25 *743:31 31.3697 
4 *743:31 *743:35 31.2387 
5 *743:35 *743:37 249.205 
6 *743:37 *792:e_na_boost 5.6875 
*END

*D_NET *744 0.114118
*CONN
*I *790:muxsarref[0] I *D CF_ADC_SAR12_sar_refs
*I *788:analog_ctrl[60] O *D afe_wb
*CAP
1 *790:muxsarref[0] 0.00173833
2 *788:analog_ctrl[60] 0.0168338
3 *744:9 0.0178209
4 *744:7 0.0160825
5 *744:5 0.0168338
6 *790:muxsarref[0] *790:muxsarref[2] 0.000162394
7 *790:muxsarref[0] *790:muxsarref[1] 0.00189807
8 *744:5 *745:5 0.0153164
9 *684:9 *744:9 0.0132275
10 *741:5 *744:5 0
11 *742:5 *744:5 0.0142044
*RES
1 *788:analog_ctrl[60] *744:5 88.0529 
2 *744:5 *744:7 3.41 
3 *744:7 *744:9 330.411 
4 *744:9 *790:muxsarref[0] 13.809 
*END

*D_NET *745 0.114359
*CONN
*I *790:muxsarref[1] I *D CF_ADC_SAR12_sar_refs
*I *788:analog_ctrl[61] O *D afe_wb
*CAP
1 *790:muxsarref[1] 0.000857759
2 *788:analog_ctrl[61] 0.0170695
3 *745:9 0.0170303
4 *745:7 0.0161725
5 *745:5 0.0170695
6 *790:muxsarref[1] *790:muxsarref[2] 0
7 *745:5 *746:5 0.0156428
8 *790:muxsarref[0] *790:muxsarref[1] 0.00189807
9 *683:14 *745:9 0.0133017
10 *744:5 *745:5 0.0153164
*RES
1 *788:analog_ctrl[61] *745:5 90.2149 
2 *745:5 *745:7 3.41 
3 *745:7 *745:9 332.232 
4 *745:9 *790:muxsarref[1] 11.455 
*END

*D_NET *746 0.121163
*CONN
*I *790:muxsarref[2] I *D CF_ADC_SAR12_sar_refs
*I *788:analog_ctrl[62] O *D afe_wb
*CAP
1 *790:muxsarref[2] 0.000995396
2 *788:analog_ctrl[62] 0.0178941
3 *746:9 0.0111165
4 *746:7 0.0101211
5 *746:5 0.0178941
6 *746:5 *747:5 0.0144053
7 *790:muxsarref[1] *790:muxsarref[2] 0
8 *790:muxsarref[0] *790:muxsarref[2] 0.000162394
9 *680:9 *746:9 0.00592346
10 *689:19 *746:9 0.027008
11 *745:5 *746:5 0.0156428
*RES
1 *788:analog_ctrl[62] *746:5 91.4401 
2 *746:5 *746:7 3.41 
3 *746:7 *746:9 331.018 
4 *746:9 *790:muxsarref[2] 15.39 
*END

*D_NET *747 0.108729
*CONN
*I *790:EN_RESVDA I *D CF_ADC_SAR12_sar_refs
*I *788:analog_ctrl[63] O *D afe_wb
*CAP
1 *790:EN_RESVDA 0.000164949
2 *788:analog_ctrl[63] 0.0213148
3 *747:13 0.00203434
4 *747:11 0.00186939
5 *747:9 0.0210924
6 *747:7 0.0210924
7 *747:5 0.0213148
8 *747:5 *748:7 0.000463763
9 *790:pd_vcmbuf *790:EN_RESVDA 0.000559752
10 *790:pd_vcmbuf *747:13 0.000337545
11 *790:PD_BUF_VREF *790:EN_RESVDA 0.000917417
12 *790:PD_BUF_VREF *747:13 0.000152449
13 *652:17 *747:9 0
14 *687:9 *747:9 0
15 *694:25 *790:EN_RESVDA 0.00010725
16 *694:25 *747:13 0.000957755
17 *742:13 *747:13 0.00194495
18 *746:5 *747:5 0.0144053
*RES
1 *788:analog_ctrl[63] *747:5 82.6479 
2 *747:5 *747:7 3.41 
3 *747:7 *747:9 431.955 
4 *747:9 *747:11 4.5 
5 *747:11 *747:13 52.4911 
6 *747:13 *790:EN_RESVDA 9.58929 
*END

*D_NET *748 0.143119
*CONN
*I *791:trimTC[0] I *D CF_BGR
*I *788:analog_ctrl[64] O *D afe_wb
*CAP
1 *791:trimTC[0] 0.00172749
2 *788:analog_ctrl[64] 0.0013293
3 *748:19 0.00289787
4 *748:9 0.0303099
5 *748:7 0.0304689
6 *791:trimTC[0] *791:trimTC[2] 0
7 *791:trimTC[0] *791:trimTC[1] 0.000421798
8 *791:trimTC[0] *753:23 0.00163018
9 *748:7 *749:7 0.00018132
10 *748:7 *750:7 0
11 *748:9 *753:9 0.0655366
12 *748:19 *749:19 0.00118657
13 *789:dft_inc[3] *748:19 0.00311618
14 *646:9 *748:19 0.000225358
15 *648:23 *748:19 0.000371132
16 *650:13 *791:trimTC[0] 0.000879299
17 *725:23 *748:19 0.00237304
18 *747:5 *748:7 0.000463763
*RES
1 *788:analog_ctrl[64] *748:7 7.18097 
2 *748:7 *748:9 137.475 
3 *748:9 *748:19 26.3469 
4 *748:19 *791:trimTC[0] 45.875 
*END

*D_NET *749 0.0998313
*CONN
*I *791:trimTC[1] I *D CF_BGR
*I *788:analog_ctrl[65] O *D afe_wb
*CAP
1 *791:trimTC[1] 0.00100616
2 *788:analog_ctrl[65] 0.000534653
3 *749:23 0.00294339
4 *749:19 0.00292718
5 *749:9 0.0401272
6 *749:7 0.0396719
7 *791:trimTC[1] *791:trimTC[2] 0
8 *749:7 *750:7 0.000218242
9 *749:9 *762:9 0
10 *749:9 *762:13 0
11 *749:9 *768:9 0
12 *749:23 *791:trimTC[2] 0.0002167
13 *791:trimTC[0] *791:trimTC[1] 0.000421798
14 *26:18 *749:23 0
15 *646:9 *749:23 0
16 *648:23 *749:19 0
17 *658:9 *749:19 0.00471918
18 *658:9 *749:23 0.00054351
19 *706:9 *749:9 0.00386493
20 *725:23 *749:19 0.00126863
21 *748:7 *749:7 0.00018132
22 *748:19 *749:19 0.00118657
*RES
1 *788:analog_ctrl[65] *749:7 4.98293 
2 *749:7 *749:9 786.982 
3 *749:9 *749:19 19.2261 
4 *749:19 *749:23 42 
5 *749:23 *791:trimTC[1] 21.3259 
*END

*D_NET *750 0.133209
*CONN
*I *791:trimTC[2] I *D CF_BGR
*I *788:analog_ctrl[66] O *D afe_wb
*CAP
1 *791:trimTC[2] 0.00134652
2 *788:analog_ctrl[66] 0.00465541
3 *750:9 0.0605739
4 *750:7 0.0638828
5 *791:trimTC[2] *791:trimTC[4] 0
6 *791:trimTC[2] *791:trimTC[3] 0.000234635
7 *750:7 *751:9 7.37803e-05
8 *750:7 *752:7 0
9 *791:trimTC[0] *791:trimTC[2] 0
10 *791:trimTC[1] *791:trimTC[2] 0
11 *658:9 *791:trimTC[2] 0.00100212
12 *725:23 *791:trimTC[2] 0.001005
13 *748:7 *750:7 0
14 *749:7 *750:7 0.000218242
15 *749:23 *791:trimTC[2] 0.0002167
*RES
1 *788:analog_ctrl[66] *750:7 16.5496 
2 *750:7 *750:9 138.54 
3 *750:9 *791:trimTC[2] 30.0593 
*END

*D_NET *751 0.17346
*CONN
*I *791:trimTC[3] I *D CF_BGR
*I *788:analog_ctrl[67] O *D afe_wb
*CAP
1 *791:trimTC[3] 0.000241157
2 *788:analog_ctrl[67] 0.000263952
3 *751:19 0.00413061
4 *751:17 0.00417656
5 *751:11 0.0122835
6 *751:9 0.0122603
7 *791:trimTC[3] *791:trimTC[4] 0
8 *751:9 *782:6 0.000246133
9 *751:11 *757:9 0.0634207
10 *751:11 *764:9 0
11 *751:11 *767:11 0.0624268
12 *751:11 *771:11 0
13 *751:11 *782:6 0.0103594
14 *791:trimTC[2] *791:trimTC[3] 0.000234635
15 *3:24 *751:17 0.000236602
16 *3:24 *751:19 0.00225426
17 *6:18 *751:17 0
18 *12:22 *751:19 0
19 *12:32 *751:19 0.000851687
20 *29:38 *751:19 0
21 *750:7 *751:9 7.37803e-05
*RES
1 *788:analog_ctrl[67] *751:9 3.9082 
2 *751:9 *751:11 805.652 
3 *751:11 *751:17 10.1875 
4 *751:17 *751:19 77.1339 
5 *751:19 *791:trimTC[3] 10.4018 
*END

*D_NET *752 0.140877
*CONN
*I *791:trimTC[4] I *D CF_BGR
*I *788:analog_ctrl[68] O *D afe_wb
*CAP
1 *791:trimTC[4] 0.000861495
2 *788:analog_ctrl[68] 0.00403524
3 *752:9 0.0310758
4 *752:7 0.0342495
5 *791:trimTC[4] *791:trimTC[5] 0.00108257
6 *752:7 *753:7 0.000534983
7 *752:7 *755:7 0
8 *791:trimTC[3] *791:trimTC[4] 0
9 *791:trimTC[2] *791:trimTC[4] 0
10 *22:14 *791:trimTC[4] 0.00100039
11 *650:13 *791:trimTC[4] 0.00170852
12 *673:9 *752:9 0.0663289
13 *750:7 *752:7 0
*RES
1 *788:analog_ctrl[68] *752:7 14.82 
2 *752:7 *752:9 140.671 
3 *752:9 *791:trimTC[4] 23.8992 
*END

*D_NET *753 0.144595
*CONN
*I *791:trimTC[5] I *D CF_BGR
*I *788:analog_ctrl[69] O *D afe_wb
*CAP
1 *791:trimTC[5] 0.000548302
2 *788:analog_ctrl[69] 0.00108178
3 *753:23 0.00188736
4 *753:9 0.0319113
5 *753:7 0.031654
6 *791:trimTC[5] *791:trimTC[6] 0
7 *753:7 *755:7 0.000454236
8 *753:9 *775:9 0
9 *791:trimTC[4] *791:trimTC[5] 0.00108257
10 *791:trimTC[0] *753:23 0.00163018
11 *22:14 *753:23 0.00292637
12 *650:13 *753:23 0.00534707
13 *748:9 *753:9 0.0655366
14 *752:7 *753:7 0.000534983
*RES
1 *788:analog_ctrl[69] *753:7 7.03683 
2 *753:7 *753:9 141.097 
3 *753:9 *753:23 39.1403 
4 *753:23 *791:trimTC[5] 14.4688 
*END

*D_NET *754 0.095745
*CONN
*I *792:clk1_boostr I *D CF_BUF_HIZ
*I *788:analog_ctrl[6] O *D afe_wb
*CAP
1 *792:clk1_boostr 0.000335659
2 *788:analog_ctrl[6] 0.000308964
3 *754:19 0.0135779
4 *754:17 0.0247242
5 *754:11 0.0127928
6 *754:9 0.00161975
7 *754:9 *782:6 0.000246133
8 *754:11 *767:11 0.00480465
9 *754:11 *775:31 5.7793e-05
10 *754:11 *777:11 0.00140794
11 *754:11 *778:11 0
12 *23:34 *792:clk1_boostr 1.84993e-05
13 *24:40 *792:clk1_boostr 1.50208e-05
14 *26:42 *792:clk1_boostr 9.41973e-06
15 *655:25 *754:17 0
16 *721:17 *754:11 9.93992e-05
17 *732:17 *754:19 0.0309073
18 *743:15 *754:9 1.31751e-05
19 *743:37 *792:clk1_boostr 0.000396888
20 *743:37 *754:19 0.00440945
*RES
1 *788:analog_ctrl[6] *754:9 3.83613 
2 *754:9 *754:11 59.625 
3 *754:11 *754:17 39.5492 
4 *754:17 *754:19 64.4997 
5 *754:19 *792:clk1_boostr 17.8316 
*END

*D_NET *755 0.136584
*CONN
*I *791:trimTC[6] I *D CF_BGR
*I *788:analog_ctrl[70] O *D afe_wb
*CAP
1 *791:trimTC[6] 0.00117725
2 *788:analog_ctrl[70] 0.00330261
3 *755:9 0.0338491
4 *755:7 0.0359744
5 *755:7 *756:7 2.77528e-05
6 *789:refby2 *755:9 0
7 *791:trimTC[5] *791:trimTC[6] 0
8 *6:10 *791:trimTC[6] 0.00137013
9 *661:26 *755:9 0
10 *722:9 *755:9 0.0604286
11 *752:7 *755:7 0
12 *753:7 *755:7 0.000454236
*RES
1 *788:analog_ctrl[70] *755:7 12.5139 
2 *755:7 *755:9 143.654 
3 *755:9 *791:trimTC[6] 13.5076 
*END

*D_NET *756 0.180504
*CONN
*I *791:trimCurr[0] I *D CF_BGR
*I *788:analog_ctrl[71] O *D afe_wb
*CAP
1 *791:trimCurr[0] 0.000692406
2 *788:analog_ctrl[71] 0.000127985
3 *756:15 0.00886026
4 *756:9 0.0191072
5 *756:7 0.0110673
6 *791:trimCurr[0] *791:trimCurr[2] 0.000124923
7 *791:trimCurr[0] *758:25 0.00383734
8 *791:trimCurr[0] *759:17 0.00388577
9 *756:7 *757:7 1.95699e-05
10 *756:9 *757:9 0.062871
11 *756:9 *759:9 0.00118563
12 *756:9 *764:9 0
13 *756:9 *770:9 0.058329
14 *756:9 *772:11 0.0103684
15 *756:15 *767:17 0
16 *755:7 *756:7 2.77528e-05
*RES
1 *788:analog_ctrl[71] *756:7 3.68573 
2 *756:7 *756:9 774.232 
3 *756:9 *756:15 29.2797 
4 *756:15 *791:trimCurr[0] 48.9241 
*END

*D_NET *757 0.178414
*CONN
*I *791:trimCurr[1] I *D CF_BGR
*I *788:analog_ctrl[72] O *D afe_wb
*CAP
1 *791:trimCurr[1] 0.00100314
2 *788:analog_ctrl[72] 9.16879e-05
3 *757:15 0.00873131
4 *757:9 0.0187276
5 *757:7 0.0110911
6 *791:trimCurr[1] *791:CurrAbsTrim[1] 9.81555e-05
7 *791:trimCurr[1] *759:17 0
8 *791:trimCurr[1] *763:25 0.00236269
9 *757:7 *758:7 2.17926e-05
10 *757:9 *764:9 0
11 *757:9 *767:11 0.000610724
12 *757:9 *770:9 0.00010321
13 *757:9 *772:11 0.00926087
14 *757:15 *771:17 0
15 *648:23 *757:15 0
16 *751:11 *757:9 0.0634207
17 *756:7 *757:7 1.95699e-05
18 *756:9 *757:9 0.062871
*RES
1 *788:analog_ctrl[72] *757:7 3.61367 
2 *757:7 *757:9 794.875 
3 *757:9 *757:15 28.7032 
4 *757:15 *791:trimCurr[1] 30.8616 
*END

*D_NET *758 0.155863
*CONN
*I *791:trimCurr[2] I *D CF_BGR
*I *788:analog_ctrl[73] O *D afe_wb
*CAP
1 *791:trimCurr[2] 3.12292e-05
2 *788:analog_ctrl[73] 0.00102604
3 *758:25 0.0023134
4 *758:23 0.00420991
5 *758:17 0.0253632
6 *758:15 0.0249198
7 *758:9 0.00634289
8 *758:7 0.00588457
9 *791:trimCurr[2] *791:trimCurr[4] 1.76597e-05
10 *791:trimCurr[2] *791:trimCurr[3] 7.94892e-05
11 *758:7 *759:7 4.50725e-05
12 *758:9 *761:9 0.00728209
13 *758:9 *761:19 4.22135e-06
14 *758:9 *763:9 0.00495937
15 *758:9 *768:9 3.62008e-05
16 *758:9 *775:9 0.000661441
17 *758:17 *784:18 0.0227745
18 *758:23 *791:inl_ctrl[0] 0.0011489
19 *758:23 *761:31 0.0120235
20 *758:23 *762:35 0.000481381
21 *758:23 *768:23 0.0111253
22 *758:25 *759:17 0.00134142
23 *758:25 *760:21 0.00927038
24 *758:25 *763:25 0
25 *791:trimCurr[0] *791:trimCurr[2] 0.000124923
26 *791:trimCurr[0] *758:25 0.00383734
27 *652:21 *758:15 0.00049307
28 *699:17 *758:9 0.00261764
29 *710:11 *758:9 0.00286605
30 *732:15 *758:15 0.000419182
31 *743:15 *758:9 0.000513811
32 *743:25 *758:15 0.00362678
33 *757:7 *758:7 2.17926e-05
*RES
1 *788:analog_ctrl[73] *758:7 5.77567 
2 *758:7 *758:9 208.982 
3 *758:9 *758:15 12.6684 
4 *758:15 *758:17 88.3631 
5 *758:17 *758:23 25.6404 
6 *758:23 *758:25 114.268 
7 *758:25 *791:trimCurr[2] 1.52232 
*END

*D_NET *759 0.177543
*CONN
*I *791:trimCurr[3] I *D CF_BGR
*I *788:analog_ctrl[74] O *D afe_wb
*CAP
1 *791:trimCurr[3] 9.94081e-05
2 *788:analog_ctrl[74] 0.000177888
3 *759:17 0.00264116
4 *759:15 0.00916117
5 *759:9 0.0168269
6 *759:7 0.0103854
7 *791:trimCurr[3] *791:trimCurr[4] 8.10647e-05
8 *759:7 *760:7 4.50725e-05
9 *759:9 *760:9 0.057882
10 *759:9 *764:9 0.00177418
11 *759:9 *770:9 0.0589191
12 *759:9 *772:11 0.00827669
13 *759:9 *779:9 0.00081586
14 *759:15 *773:19 0
15 *759:17 *763:25 0
16 *791:trimCurr[2] *791:trimCurr[3] 7.94892e-05
17 *791:trimCurr[0] *759:17 0.00388577
18 *791:trimCurr[1] *759:17 0
19 *4:34 *759:15 0.000189018
20 *11:18 *759:15 0
21 *19:18 *759:15 0.00373103
22 *756:9 *759:9 0.00118563
23 *758:7 *759:7 4.50725e-05
24 *758:25 *759:17 0.00134142
*RES
1 *788:analog_ctrl[74] *759:7 3.82987 
2 *759:7 *759:9 751.768 
3 *759:9 *759:15 29.3518 
4 *759:15 *759:17 77.6875 
5 *759:17 *791:trimCurr[3] 10.9777 
*END

*D_NET *760 0.193354
*CONN
*I *791:trimCurr[4] I *D CF_BGR
*I *788:analog_ctrl[75] O *D afe_wb
*CAP
1 *791:trimCurr[4] 5.30424e-05
2 *788:analog_ctrl[75] 0.000212262
3 *760:21 0.0037213
4 *760:19 0.00772732
5 *760:9 0.0136525
6 *760:7 0.00980566
7 *791:trimCurr[4] *791:CurrAbsTrim[0] 0
8 *760:7 *761:7 5.37324e-05
9 *760:9 *764:9 0.0580811
10 *760:9 *770:9 0.000106981
11 *760:9 *772:11 0.00586034
12 *760:9 *774:9 0.000729342
13 *760:19 *791:inl_ctrl[0] 0.00151722
14 *760:19 *761:31 0.011481
15 *760:19 *763:23 0.00849059
16 *760:19 *766:25 0.000140854
17 *760:19 *772:21 0
18 *760:19 *775:43 0.000359948
19 *760:19 *775:45 0.00363147
20 *760:21 *791:inl_ctrl[0] 0.000432834
21 *760:21 *761:33 0
22 *760:21 *762:37 0
23 *760:21 *763:25 0
24 *791:trimCurr[3] *791:trimCurr[4] 8.10647e-05
25 *791:trimCurr[2] *791:trimCurr[4] 1.76597e-05
26 *758:25 *760:21 0.00927038
27 *759:7 *760:7 4.50725e-05
28 *759:9 *760:9 0.057882
*RES
1 *788:analog_ctrl[75] *760:7 3.90193 
2 *760:7 *760:9 715.339 
3 *760:9 *760:19 29.8406 
4 *760:19 *760:21 115.482 
5 *760:21 *791:trimCurr[4] 1.53125 
*END

*D_NET *761 0.157306
*CONN
*I *791:trimCurr[5] I *D CF_BGR
*I *788:analog_ctrl[76] O *D afe_wb
*CAP
1 *791:trimCurr[5] 3.53074e-05
2 *788:analog_ctrl[76] 0.000874011
3 *761:33 0.00379893
4 *761:31 0.00612997
5 *761:25 0.0192395
6 *761:23 0.0180371
7 *761:19 0.00171889
8 *761:9 0.00452782
9 *761:7 0.00484688
10 *791:trimCurr[5] *791:CurrAbsTrim[0] 6.60853e-05
11 *791:trimCurr[5] *791:inl_ctrl[0] 0
12 *761:7 *762:7 0.00015463
13 *761:7 *763:7 0
14 *761:9 *763:9 0
15 *761:9 *768:9 0.014634
16 *761:19 *763:9 0.00236761
17 *761:19 *775:9 0.000503649
18 *761:23 *781:28 0.000512437
19 *761:25 *768:17 0.0226661
20 *761:31 *791:inl_ctrl[0] 0.00138964
21 *761:31 *762:35 0.000143963
22 *761:31 *768:23 0.000239687
23 *761:31 *775:45 0.00087387
24 *761:31 *775:55 8.65987e-06
25 *761:31 *778:17 0
26 *761:33 *791:CurrAbsTrim[0] 2.97748e-05
27 *761:33 *791:inl_ctrl[5] 0.00153684
28 *761:33 *762:37 0.00917194
29 *761:33 *770:17 0
30 *761:33 *772:23 0
31 *761:33 *774:17 0.000154703
32 *647:17 *761:23 0.00110933
33 *653:37 *761:23 0
34 *658:13 *761:25 0.00854257
35 *698:9 *761:19 8.48844e-05
36 *699:17 *761:9 0.000165345
37 *710:11 *761:19 0.00251126
38 *710:19 *761:23 0.000386351
39 *758:9 *761:9 0.00728209
40 *758:9 *761:19 4.22135e-06
41 *758:23 *761:31 0.0120235
42 *760:7 *761:7 5.37324e-05
43 *760:19 *761:31 0.011481
44 *760:21 *761:33 0
*RES
1 *788:analog_ctrl[76] *761:7 5.63153 
2 *761:7 *761:9 184.241 
3 *761:9 *761:19 46.3571 
4 *761:19 *761:23 33.7857 
5 *761:23 *761:25 503.902 
6 *761:25 *761:31 27.1898 
7 *761:31 *761:33 115.482 
8 *761:33 *791:trimCurr[5] 1.00446 
*END

*D_NET *762 0.166274
*CONN
*I *791:CurrAbsTrim[0] I *D CF_BGR
*I *788:analog_ctrl[77] O *D afe_wb
*CAP
1 *791:CurrAbsTrim[0] 5.5647e-05
2 *788:analog_ctrl[77] 0.000376518
3 *762:37 0.0036144
4 *762:35 0.00663212
5 *762:29 0.0139925
6 *762:27 0.0127809
7 *762:13 0.00465541
8 *762:11 0.00281982
9 *762:9 0.00446508
10 *762:7 0.00481539
11 *762:7 *763:7 0.000138248
12 *762:9 *766:17 0.000232309
13 *762:9 *769:9 0.0106847
14 *762:13 *766:17 0.000332013
15 *762:13 *769:9 0.002055
16 *762:27 *763:15 3.66916e-05
17 *762:27 *766:17 0.00069376
18 *762:27 *769:19 0.00141587
19 *762:27 *775:31 2.42516e-05
20 *762:29 *763:17 0.0423436
21 *762:29 *766:19 0.0227934
22 *762:35 *791:inl_ctrl[0] 0.000686062
23 *762:35 *768:23 0.00810576
24 *762:35 *775:55 0.00134075
25 *762:35 *778:17 0
26 *762:35 *782:18 0.00155843
27 *762:37 *791:inl_ctrl[0] 0.00145275
28 *762:37 *774:17 0.000154703
29 *788:adc_data[5] *762:27 0.00174087
30 *791:trimCurr[5] *791:CurrAbsTrim[0] 6.60853e-05
31 *791:trimCurr[4] *791:CurrAbsTrim[0] 0
32 *653:37 *762:27 0.000278007
33 *665:21 *762:27 0.00130832
34 *721:17 *762:13 0.00280251
35 *721:23 *762:27 0.00184033
36 *749:9 *762:9 0
37 *749:9 *762:13 0
38 *758:23 *762:35 0.000481381
39 *760:21 *762:37 0
40 *761:7 *762:7 0.00015463
41 *761:31 *762:35 0.000143963
42 *761:33 *791:CurrAbsTrim[0] 2.97748e-05
43 *761:33 *762:37 0.00917194
*RES
1 *788:analog_ctrl[77] *762:7 4.55053 
2 *762:7 *762:9 132.768 
3 *762:9 *762:11 0.535714 
4 *762:11 *762:13 81.6518 
5 *762:13 *762:27 47.0083 
6 *762:27 *762:29 89.3219 
7 *762:29 *762:35 21.5326 
8 *762:35 *762:37 113.054 
9 *762:37 *791:CurrAbsTrim[0] 1.53125 
*END

*D_NET *763 0.162372
*CONN
*I *791:CurrAbsTrim[1] I *D CF_BGR
*I *788:analog_ctrl[78] O *D afe_wb
*CAP
1 *791:CurrAbsTrim[1] 2.62416e-05
2 *788:analog_ctrl[78] 0.00100207
3 *763:25 0.00344339
4 *763:23 0.00471778
5 *763:17 0.0197711
6 *763:15 0.020463
7 *763:9 0.00891123
8 *763:7 0.00792074
9 *791:CurrAbsTrim[1] *791:CurrAbsTrim[2] 0.000126989
10 *763:7 *764:7 6.33202e-05
11 *763:7 *766:17 3.84634e-05
12 *763:9 *768:9 0
13 *763:9 *775:9 0.000704631
14 *763:15 *766:17 0.000323829
15 *763:15 *775:31 0.000280697
16 *763:15 *781:28 0.000536796
17 *763:23 *791:inl_ctrl[0] 0.0012293
18 *763:23 *766:25 0.00840027
19 *763:25 *791:CurrAbsTrim[2] 0.00180699
20 *763:25 *766:27 0.00420051
21 *763:25 *777:19 0.000835281
22 *788:adc_data[10] *763:15 4.88317e-05
23 *788:adc_data[11] *763:15 0.000916027
24 *788:adc_data[4] *763:15 0.000273665
25 *788:adc_data[5] *763:15 0.00183222
26 *788:adc_eof *763:15 0.000100938
27 *791:trimCurr[1] *791:CurrAbsTrim[1] 9.81555e-05
28 *791:trimCurr[1] *763:25 0.00236269
29 *19:24 *763:17 0
30 *653:37 *763:15 0.000650209
31 *665:21 *763:15 0.00252303
32 *665:27 *763:15 5.44456e-05
33 *698:9 *763:9 0.00605243
34 *699:17 *763:15 0.00302824
35 *700:15 *763:9 0
36 *710:11 *763:9 0.000200012
37 *710:19 *763:15 2.79405e-05
38 *721:17 *763:15 0.000763213
39 *743:15 *763:9 0.000281548
40 *743:25 *763:15 1.95404e-05
41 *758:9 *763:9 0.00495937
42 *758:25 *763:25 0
43 *759:17 *763:25 0
44 *760:19 *763:23 0.00849059
45 *760:21 *763:25 0
46 *761:7 *763:7 0
47 *761:9 *763:9 0
48 *761:19 *763:9 0.00236761
49 *762:7 *763:7 0.000138248
50 *762:27 *763:15 3.66916e-05
51 *762:29 *763:17 0.0423436
*RES
1 *788:analog_ctrl[78] *763:7 5.99187 
2 *763:7 *763:9 218.089 
3 *763:9 *763:15 17.7851 
4 *763:15 *763:17 88.5762 
5 *763:17 *763:23 20.0912 
6 *763:23 *763:25 116.089 
7 *763:25 *791:CurrAbsTrim[1] 1.51339 
*END

*D_NET *764 0.144609
*CONN
*I *791:CurrAbsTrim[2] I *D CF_BGR
*I *788:analog_ctrl[79] O *D afe_wb
*CAP
1 *791:CurrAbsTrim[2] 0.000360413
2 *788:analog_ctrl[79] 0.000176983
3 *764:15 0.00686118
4 *764:9 0.0325713
5 *764:7 0.0262476
6 *791:CurrAbsTrim[2] *791:CurrAbsTrim[3] 0.000126003
7 *791:CurrAbsTrim[2] *766:27 0.00180494
8 *764:7 *766:17 0.000335586
9 *764:9 *769:9 0
10 *764:9 *770:9 0.000287039
11 *764:9 *772:11 0.00586034
12 *764:9 *774:9 0.00081586
13 *791:CurrAbsTrim[1] *791:CurrAbsTrim[2] 0.000126989
14 *2:36 *764:15 0.00047495
15 *18:26 *764:15 0
16 *646:9 *764:15 0.000508887
17 *648:23 *764:15 0.00237186
18 *658:9 *764:15 0.000386294
19 *732:9 *764:9 0.00356731
20 *751:11 *764:9 0
21 *756:9 *764:9 0
22 *757:9 *764:9 0
23 *759:9 *764:9 0.00177418
24 *760:9 *764:9 0.0580811
25 *763:7 *764:7 6.33202e-05
26 *763:25 *791:CurrAbsTrim[2] 0.00180699
*RES
1 *788:analog_ctrl[79] *764:7 3.974 
2 *764:7 *764:9 818.554 
3 *764:9 *764:15 28.9194 
4 *764:15 *791:CurrAbsTrim[2] 24.0223 
*END

*D_NET *766 0.146034
*CONN
*I *791:CurrAbsTrim[3] I *D CF_BGR
*I *788:analog_ctrl[80] O *D afe_wb
*CAP
1 *791:CurrAbsTrim[3] 4.31644e-05
2 *788:analog_ctrl[80] 0.0200435
3 *766:27 0.00403915
4 *766:25 0.00697557
5 *766:19 0.0232665
6 *766:17 0.0403304
7 *766:17 *769:9 0.00087247
8 *766:17 *774:9 0.0064005
9 *766:17 *782:6 0.000246133
10 *766:17 *784:16 0.000417492
11 *766:25 *791:inl_ctrl[0] 0.00126859
12 *766:25 *772:21 0
13 *766:27 *791:CurrAbsTrim[4] 0
14 *766:27 *768:25 0
15 *766:27 *775:55 0
16 *766:27 *777:19 0.00116798
17 *788:adc_data[5] *766:17 0.000263267
18 *791:CurrAbsTrim[2] *791:CurrAbsTrim[3] 0.000126003
19 *791:CurrAbsTrim[2] *766:27 0.00180494
20 *26:42 *766:25 0
21 *665:21 *766:17 0.000189397
22 *721:17 *766:17 0.00046173
23 *721:23 *766:17 0.000626238
24 *760:19 *766:25 0.000140854
25 *762:9 *766:17 0.000232309
26 *762:13 *766:17 0.000332013
27 *762:27 *766:17 0.00069376
28 *762:29 *766:19 0.0227934
29 *763:7 *766:17 3.84634e-05
30 *763:15 *766:17 0.000323829
31 *763:23 *766:25 0.00840027
32 *763:25 *766:27 0.00420051
33 *764:7 *766:17 0.000335586
*RES
1 *788:analog_ctrl[80] *766:17 44.9586 
2 *766:17 *766:19 88.7893 
3 *766:19 *766:25 20.3795 
4 *766:25 *766:27 116.696 
5 *766:27 *791:CurrAbsTrim[3] 1.45089 
*END

*D_NET *767 0.147693
*CONN
*I *791:CurrAbsTrim[4] I *D CF_BGR
*I *788:analog_ctrl[81] O *D afe_wb
*CAP
1 *791:CurrAbsTrim[4] 0.00139405
2 *788:analog_ctrl[81] 8.07076e-05
3 *767:17 0.0087767
4 *767:11 0.0318558
5 *767:9 0.0245538
6 *791:CurrAbsTrim[4] *791:CurrAbsTrim[5] 0.000110363
7 *791:CurrAbsTrim[4] *768:25 0.00334253
8 *791:CurrAbsTrim[4] *779:17 0.000457334
9 *767:9 *768:7 1.05919e-05
10 *767:11 *770:9 0
11 *767:11 *771:11 0
12 *767:11 *777:11 0
13 *767:11 *778:11 0
14 *767:11 *782:6 0.00924982
15 *767:11 *782:16 1.94879e-05
16 *767:17 *771:17 0
17 *751:11 *767:11 0.0624268
18 *754:11 *767:11 0.00480465
19 *756:15 *767:17 0
20 *757:9 *767:11 0.000610724
21 *766:27 *791:CurrAbsTrim[4] 0
*RES
1 *788:analog_ctrl[81] *767:9 3.62307 
2 *767:9 *767:11 805.196 
3 *767:11 *767:17 27.8384 
4 *767:17 *791:CurrAbsTrim[4] 42.9152 
*END

*D_NET *768 0.153961
*CONN
*I *791:CurrAbsTrim[5] I *D CF_BGR
*I *788:analog_ctrl[82] O *D afe_wb
*CAP
1 *791:CurrAbsTrim[5] 3.62505e-05
2 *788:analog_ctrl[82] 0.000789391
3 *768:25 0.00347143
4 *768:23 0.00601673
5 *768:17 0.0190723
6 *768:15 0.0179324
7 *768:9 0.0101573
8 *768:7 0.00950511
9 *791:CurrAbsTrim[5] *791:mux2sel 6.22563e-05
10 *768:7 *769:7 0.000164425
11 *768:9 *775:31 1.94879e-05
12 *768:15 *774:15 7.59802e-06
13 *768:15 *777:17 0.000552592
14 *768:15 *779:15 6.08368e-05
15 *768:23 *791:inl_ctrl[0] 0.00108422
16 *768:23 *778:17 0
17 *768:23 *782:18 0.000365926
18 *768:25 *775:55 0.0001023
19 *768:25 *778:19 0.00336338
20 *768:25 *782:22 0
21 *791:CurrAbsTrim[4] *791:CurrAbsTrim[5] 0.000110363
22 *791:CurrAbsTrim[4] *768:25 0.00334253
23 *655:25 *768:15 0.000749427
24 *658:13 *768:17 0.0178722
25 *665:21 *768:9 0.00219782
26 *698:9 *768:9 0
27 *699:17 *768:9 0.000106932
28 *706:9 *768:9 0
29 *732:15 *768:15 0
30 *749:9 *768:9 0
31 *758:9 *768:9 3.62008e-05
32 *758:23 *768:23 0.0111253
33 *761:9 *768:9 0.014634
34 *761:25 *768:17 0.0226661
35 *761:31 *768:23 0.000239687
36 *762:35 *768:23 0.00810576
37 *763:9 *768:9 0
38 *766:27 *768:25 0
39 *767:9 *768:7 1.05919e-05
*RES
1 *788:analog_ctrl[82] *768:7 5.55947 
2 *768:7 *768:9 237.518 
3 *768:9 *768:15 11.7675 
4 *768:15 *768:17 497.375 
5 *768:17 *768:23 24.9557 
6 *768:23 *768:25 113.661 
7 *768:25 *791:CurrAbsTrim[5] 1.42411 
*END

*D_NET *769 0.158903
*CONN
*I *791:inl_ctrl[0] I *D CF_BGR
*I *788:analog_ctrl[83] O *D afe_wb
*CAP
1 *791:inl_ctrl[0] 0.01143
2 *788:analog_ctrl[83] 0.000327081
3 *769:25 0.0355459
4 *769:23 0.0249563
5 *769:19 0.00238042
6 *769:9 0.00950449
7 *769:7 0.00829148
8 *791:inl_ctrl[0] *791:inl_ctrl[1] 7.89584e-05
9 *791:inl_ctrl[0] *791:inl_ctrl[5] 0.00674701
10 *791:inl_ctrl[0] *772:21 0.000478496
11 *791:inl_ctrl[0] *774:17 0.00116431
12 *791:inl_ctrl[0] *775:55 0.000106249
13 *791:inl_ctrl[0] *777:19 0
14 *769:7 *770:7 3.95706e-05
15 *769:9 *770:9 0
16 *769:19 *775:31 0.000723982
17 *769:19 *784:16 0.000758594
18 *769:23 *781:32 0.00355305
19 *788:adc_data[10] *769:23 0.00284432
20 *791:trimCurr[5] *791:inl_ctrl[0] 0
21 *10:20 *769:25 0.0109557
22 *11:26 *769:25 0.00944997
23 *12:32 *791:inl_ctrl[0] 3.40071e-05
24 *19:24 *769:25 0
25 *646:23 *769:23 0.000480573
26 *647:17 *769:23 0.000152412
27 *653:37 *769:19 0
28 *665:27 *769:23 0.000184781
29 *699:17 *769:23 6.89915e-05
30 *710:19 *769:23 4.70002e-05
31 *721:17 *769:9 0.00275379
32 *721:23 *769:19 0.000166563
33 *732:9 *769:9 0
34 *732:15 *769:23 0
35 *743:25 *769:23 0.000277359
36 *758:23 *791:inl_ctrl[0] 0.0011489
37 *760:19 *791:inl_ctrl[0] 0.00151722
38 *760:21 *791:inl_ctrl[0] 0.000432834
39 *761:31 *791:inl_ctrl[0] 0.00138964
40 *762:9 *769:9 0.0106847
41 *762:13 *769:9 0.002055
42 *762:27 *769:19 0.00141587
43 *762:35 *791:inl_ctrl[0] 0.000686062
44 *762:37 *791:inl_ctrl[0] 0.00145275
45 *763:23 *791:inl_ctrl[0] 0.0012293
46 *764:9 *769:9 0
47 *766:17 *769:9 0.00087247
48 *766:25 *791:inl_ctrl[0] 0.00126859
49 *768:7 *769:7 0.000164425
50 *768:23 *791:inl_ctrl[0] 0.00108422
*RES
1 *788:analog_ctrl[83] *769:7 4.47847 
2 *769:7 *769:9 228.259 
3 *769:9 *769:19 48.6868 
4 *769:19 *769:23 9.33043 
5 *769:23 *769:25 88.2566 
6 *769:25 *791:inl_ctrl[0] 31.5834 
*END

*D_NET *770 0.180102
*CONN
*I *791:inl_ctrl[1] I *D CF_BGR
*I *788:analog_ctrl[84] O *D afe_wb
*CAP
1 *791:inl_ctrl[1] 3.71802e-05
2 *788:analog_ctrl[84] 0.000155196
3 *770:17 0.00371778
4 *770:15 0.0122725
5 *770:9 0.0195051
6 *770:7 0.0110684
7 *791:inl_ctrl[1] *791:inl_ctrl[2] 6.75637e-05
8 *770:9 *772:11 0.00895581
9 *770:9 *777:11 0
10 *770:9 *779:9 0.000729342
11 *770:15 *778:17 0
12 *770:17 *791:inl_ctrl[2] 0.00281866
13 *770:17 *772:23 0.0029103
14 *791:inl_ctrl[0] *791:inl_ctrl[1] 7.89584e-05
15 *756:9 *770:9 0.058329
16 *757:9 *770:9 0.00010321
17 *759:9 *770:9 0.0589191
18 *760:9 *770:9 0.000106981
19 *761:33 *770:17 0
20 *764:9 *770:9 0.000287039
21 *767:11 *770:9 0
22 *769:7 *770:7 3.95706e-05
23 *769:9 *770:9 0
*RES
1 *788:analog_ctrl[84] *770:7 3.7578 
2 *770:7 *770:9 749.946 
3 *770:9 *770:15 30.5769 
4 *770:15 *770:17 103.339 
5 *770:17 *791:inl_ctrl[1] 1.45089 
*END

*D_NET *771 0.186608
*CONN
*I *791:inl_ctrl[2] I *D CF_BGR
*I *788:analog_ctrl[85] O *D afe_wb
*CAP
1 *791:inl_ctrl[2] 0.000625114
2 *788:analog_ctrl[85] 0.000185903
3 *771:17 0.008919
4 *771:11 0.0207032
5 *771:9 0.0125952
6 *791:inl_ctrl[2] *791:inl_ctrl[3] 7.04811e-05
7 *791:inl_ctrl[2] *772:23 0.00282298
8 *771:9 *784:10 0.000246133
9 *771:11 *773:13 0.0637702
10 *771:11 *775:33 0.00893611
11 *771:11 *778:11 0.0606588
12 *771:11 *784:10 0.00418846
13 *791:inl_ctrl[1] *791:inl_ctrl[2] 6.75637e-05
14 *751:11 *771:11 0
15 *757:15 *771:17 0
16 *767:11 *771:11 0
17 *767:17 *771:17 0
18 *770:17 *791:inl_ctrl[2] 0.00281866
*RES
1 *788:analog_ctrl[85] *771:9 3.83613 
2 *771:9 *771:11 818.554 
3 *771:11 *771:17 29.9283 
4 *771:17 *791:inl_ctrl[2] 36.8438 
*END

*D_NET *772 0.216753
*CONN
*I *791:inl_ctrl[3] I *D CF_BGR
*I *788:analog_ctrl[86] O *D afe_wb
*CAP
1 *791:inl_ctrl[3] 4.65958e-05
2 *788:analog_ctrl[86] 0.000120564
3 *772:23 0.00366095
4 *772:21 0.0119242
5 *772:11 0.0346829
6 *772:9 0.0264937
7 *791:inl_ctrl[3] *791:inl_ctrl[4] 7.74715e-05
8 *772:9 *773:11 6.8712e-06
9 *772:9 *774:9 0
10 *772:11 *779:9 0.020078
11 *772:11 *782:6 0.0613713
12 *772:23 *773:21 0.00302363
13 *772:23 *775:57 0
14 *791:inl_ctrl[0] *772:21 0.000478496
15 *791:inl_ctrl[2] *791:inl_ctrl[3] 7.04811e-05
16 *791:inl_ctrl[2] *772:23 0.00282298
17 *26:42 *772:21 0.000402095
18 *756:9 *772:11 0.0103684
19 *757:9 *772:11 0.00926087
20 *759:9 *772:11 0.00827669
21 *760:9 *772:11 0.00586034
22 *760:19 *772:21 0
23 *761:33 *772:23 0
24 *764:9 *772:11 0.00586034
25 *766:25 *772:21 0
26 *770:9 *772:11 0.00895581
27 *770:17 *772:23 0.0029103
*RES
1 *788:analog_ctrl[86] *772:9 3.73117 
2 *772:9 *772:11 129.378 
3 *772:11 *772:21 30.848 
4 *772:21 *772:23 122.768 
5 *772:23 *791:inl_ctrl[3] 1.63393 
*END

*D_NET *773 0.168442
*CONN
*I *791:inl_ctrl[4] I *D CF_BGR
*I *788:analog_ctrl[87] O *D afe_wb
*CAP
1 *791:inl_ctrl[4] 3.57455e-05
2 *788:analog_ctrl[87] 0.000179753
3 *773:21 0.00163473
4 *773:19 0.00868178
5 *773:13 0.0313826
6 *773:11 0.0244796
7 *791:inl_ctrl[4] *791:inl_ctrl[6] 1.60322e-05
8 *791:inl_ctrl[4] *791:inl_ctrl[5] 4.11671e-05
9 *773:11 *784:10 0.000229275
10 *773:13 *775:33 0.0193343
11 *773:13 *778:11 0.000212261
12 *773:13 *781:28 0
13 *773:13 *784:10 0.00837691
14 *773:21 *791:inl_ctrl[6] 4.36989e-06
15 *773:21 *775:57 0.00219998
16 *791:inl_ctrl[3] *791:inl_ctrl[4] 7.74715e-05
17 *11:18 *773:19 0.00475553
18 *759:15 *773:19 0
19 *771:11 *773:13 0.0637702
20 *772:9 *773:11 6.8712e-06
21 *772:23 *773:21 0.00302363
*RES
1 *788:analog_ctrl[87] *773:11 4.37185 
2 *773:11 *773:13 787.589 
3 *773:13 *773:19 30.0725 
4 *773:19 *773:21 71.1607 
5 *773:21 *791:inl_ctrl[4] 1.44196 
*END

*D_NET *774 0.171358
*CONN
*I *791:inl_ctrl[5] I *D CF_BGR
*I *788:analog_ctrl[88] O *D afe_wb
*CAP
1 *791:inl_ctrl[5] 0.00696625
2 *788:analog_ctrl[88] 0.0104578
3 *774:17 0.0387882
4 *774:15 0.0346431
5 *774:9 0.0132789
6 *791:inl_ctrl[5] *791:inl_ctrl[6] 4.28308e-05
7 *774:9 *775:9 7.12616e-05
8 *774:9 *779:9 0.0204116
9 *774:15 *777:17 5.44456e-05
10 *774:15 *779:15 0.0135494
11 *791:inl_ctrl[0] *791:inl_ctrl[5] 0.00674701
12 *791:inl_ctrl[0] *774:17 0.00116431
13 *791:inl_ctrl[4] *791:inl_ctrl[5] 4.11671e-05
14 *12:32 *791:inl_ctrl[5] 0
15 *655:25 *774:15 0
16 *732:9 *774:9 0.000495414
17 *732:15 *774:15 0.0148462
18 *760:9 *774:9 0.000729342
19 *761:33 *791:inl_ctrl[5] 0.00153684
20 *761:33 *774:17 0.000154703
21 *762:37 *774:17 0.000154703
22 *764:9 *774:9 0.00081586
23 *766:17 *774:9 0.0064005
24 *768:15 *774:15 7.59802e-06
25 *772:9 *774:9 0
*RES
1 *788:analog_ctrl[88] *774:9 47.5916 
2 *774:9 *774:15 30.2166 
3 *774:15 *774:17 90.2682 
4 *774:17 *791:inl_ctrl[5] 26.0656 
*END

*D_NET *775 0.172085
*CONN
*I *791:inl_ctrl[6] I *D CF_BGR
*I *788:analog_ctrl[89] O *D afe_wb
*CAP
1 *791:inl_ctrl[6] 5.3823e-05
2 *788:analog_ctrl[89] 0.0182871
3 *775:57 0.00462673
4 *775:55 0.0057192
5 *775:45 0.00707654
6 *775:43 0.00612889
7 *775:33 0.0306951
8 *775:31 0.0315113
9 *775:9 0.0193019
10 *775:31 *777:11 0.000223701
11 *775:33 *782:6 0.00498559
12 *775:43 *778:17 0
13 *775:45 *782:18 0
14 *791:inl_ctrl[0] *775:55 0.000106249
15 *791:inl_ctrl[5] *791:inl_ctrl[6] 4.28308e-05
16 *791:inl_ctrl[4] *791:inl_ctrl[6] 1.60322e-05
17 *653:37 *775:31 0
18 *665:21 *775:31 4.64974e-05
19 *686:15 *775:9 0.00075952
20 *692:11 *775:9 0.000220214
21 *698:9 *775:9 0.000506674
22 *699:17 *775:9 0.000508347
23 *699:17 *775:31 0.000266889
24 *710:11 *775:9 0.000544852
25 *721:17 *775:31 0.000100988
26 *743:15 *775:9 0.000121805
27 *743:25 *775:9 0.000395434
28 *753:9 *775:9 0
29 *754:11 *775:31 5.7793e-05
30 *758:9 *775:9 0.000661441
31 *760:19 *775:43 0.000359948
32 *760:19 *775:45 0.00363147
33 *761:19 *775:9 0.000503649
34 *761:31 *775:45 0.00087387
35 *761:31 *775:55 8.65987e-06
36 *762:27 *775:31 2.42516e-05
37 *762:35 *775:55 0.00134075
38 *763:9 *775:9 0.000704631
39 *763:15 *775:31 0.000280697
40 *766:27 *775:55 0
41 *768:9 *775:31 1.94879e-05
42 *768:25 *775:55 0.0001023
43 *769:19 *775:31 0.000723982
44 *771:11 *775:33 0.00893611
45 *772:23 *775:57 0
46 *773:13 *775:33 0.0193343
47 *773:21 *791:inl_ctrl[6] 4.36989e-06
48 *773:21 *775:57 0.00219998
49 *774:9 *775:9 7.12616e-05
*RES
1 *788:analog_ctrl[89] *775:9 48.2934 
2 *775:9 *775:31 39.5255 
3 *775:31 *775:33 88.5762 
4 *775:33 *775:43 12.1843 
5 *775:43 *775:45 112.25 
6 *775:45 *775:55 17.4748 
7 *775:55 *775:57 112.446 
8 *775:57 *791:inl_ctrl[6] 1.58482 
*END

*D_NET *776 0.150749
*CONN
*I *790:pd I *D CF_ADC_SAR12_sar_refs
*I *789:pd I *D CF_ADC_SAR12
*I *788:analog_ctrl[8] O *D afe_wb
*CAP
1 *790:pd 7.99039e-05
2 *789:pd 0.00023364
3 *788:analog_ctrl[8] 0.0107461
4 *776:35 0.0130904
5 *776:21 0.021254
6 *776:19 0.0231697
7 *776:11 0.0283539
8 *776:7 0.0239402
9 *789:pd *789:pd_ana 3.96898e-05
10 *790:pd *790:pd_ana 0.000116385
11 *776:7 *787:7 0.00196183
12 *776:19 *787:21 0.000106477
13 *776:19 *787:35 0
14 *776:21 *787:35 0
15 *776:35 *787:21 0.0142667
16 *789:trimunit *789:pd 0.000143611
17 *789:vssa *776:11 0
18 *789:vssa *776:19 0.00136959
19 *789:enable_hv *789:pd 0.00013952
20 *790:hiz *790:pd 0.000126667
21 *790:hiz *776:35 0.0115661
22 *790:sw_start *776:35 0
23 *19:30 *776:19 4.41007e-05
24 *20:20 *776:21 0
25 *20:38 *776:21 0
26 *671:19 *776:11 0
27 *676:5 *776:7 0
28 *706:13 *776:7 0
*RES
1 *788:analog_ctrl[8] *776:7 35.8635 
2 *776:7 *776:11 42.2351 
3 *776:11 *776:19 12.1896 
4 *776:19 *776:21 66.5583 
5 *776:21 *789:pd 8.08889 
6 *776:11 *776:35 60.6911 
7 *776:35 *790:pd 6.24036 
*END

*D_NET *777 0.162009
*CONN
*I *791:mux1sel[0] I *D CF_BGR
*I *788:analog_ctrl[90] O *D afe_wb
*CAP
1 *791:mux1sel[0] 0.000200121
2 *788:analog_ctrl[90] 0.000175472
3 *777:19 0.0236715
4 *777:17 0.0281316
5 *777:11 0.0118426
6 *777:9 0.00735783
7 *791:mux1sel[0] *791:mux2sel 0.000275085
8 *791:mux1sel[0] *791:mux1sel[1] 6.46621e-05
9 *777:11 *778:11 0.0206159
10 *777:11 *781:10 0.000710051
11 *777:11 *784:10 0.000233087
12 *777:17 *779:15 0.0132281
13 *777:19 *779:17 0.0512609
14 *791:inl_ctrl[0] *777:19 0
15 *655:25 *777:17 0
16 *754:11 *777:11 0.00140794
17 *763:25 *777:19 0.000835281
18 *766:27 *777:19 0.00116798
19 *767:11 *777:11 0
20 *768:15 *777:17 0.000552592
21 *770:9 *777:11 0
22 *774:15 *777:17 5.44456e-05
23 *775:31 *777:11 0.000223701
*RES
1 *788:analog_ctrl[90] *777:9 3.83613 
2 *777:9 *777:11 253.304 
3 *777:11 *777:17 27.8024 
4 *777:17 *777:19 107.646 
5 *777:19 *791:mux1sel[0] 8.03798 
*END

*D_NET *778 0.159582
*CONN
*I *791:mux1sel[1] I *D CF_BGR
*I *788:analog_ctrl[91] O *D afe_wb
*CAP
1 *791:mux1sel[1] 3.21285e-05
2 *788:analog_ctrl[91] 9.56023e-05
3 *778:19 0.00234056
4 *778:17 0.00934764
5 *778:11 0.0261592
6 *778:9 0.0192156
7 *791:mux1sel[1] *791:mux2sel 2.23957e-05
8 *791:mux1sel[1] *791:dft_sel 0.000113667
9 *791:mux1sel[1] *780:18 1.31034e-05
10 *778:11 *782:6 0.00539923
11 *778:11 *782:16 0
12 *778:11 *784:10 0.00507145
13 *778:19 *791:mux2sel 7.14733e-06
14 *778:19 *780:18 0.00470605
15 *778:19 *782:22 0.00214309
16 *791:mux1sel[0] *791:mux1sel[1] 6.46621e-05
17 *754:11 *778:11 0
18 *761:31 *778:17 0
19 *762:35 *778:17 0
20 *767:11 *778:11 0
21 *768:23 *778:17 0
22 *768:25 *778:19 0.00336338
23 *770:15 *778:17 0
24 *771:11 *778:11 0.0606588
25 *773:13 *778:11 0.000212261
26 *775:43 *778:17 0
27 *777:11 *778:11 0.0206159
*RES
1 *788:analog_ctrl[91] *778:9 3.62307 
2 *778:9 *778:11 761.482 
3 *778:11 *778:17 27.1898 
4 *778:17 *778:19 109.411 
5 *778:19 *791:mux1sel[1] 1.50893 
*END

*D_NET *779 0.193463
*CONN
*I *791:mux2sel I *D CF_BGR
*I *788:analog_ctrl[92] O *D afe_wb
*CAP
1 *791:mux2sel 0.000137474
2 *788:analog_ctrl[92] 0.00877507
3 *779:17 0.0245733
4 *779:15 0.026902
5 *779:9 0.0112413
6 *779:9 *782:6 0.000357189
7 *791:CurrAbsTrim[5] *791:mux2sel 6.22563e-05
8 *791:CurrAbsTrim[4] *779:17 0.000457334
9 *791:mux1sel[0] *791:mux2sel 0.000275085
10 *791:mux1sel[1] *791:mux2sel 2.23957e-05
11 *12:32 *791:mux2sel 3.03088e-05
12 *686:13 *779:9 0.000488537
13 *759:9 *779:9 0.00081586
14 *768:15 *779:15 6.08368e-05
15 *770:9 *779:9 0.000729342
16 *772:11 *779:9 0.020078
17 *774:9 *779:9 0.0204116
18 *774:15 *779:15 0.0135494
19 *777:17 *779:15 0.0132281
20 *777:19 *779:17 0.0512609
21 *778:19 *791:mux2sel 7.14733e-06
*RES
1 *788:analog_ctrl[92] *779:9 49.2585 
2 *779:9 *779:15 28.1987 
3 *779:15 *779:17 107.646 
4 *779:17 *791:mux2sel 8.44302 
*END

*D_NET *780 0.120534
*CONN
*I *791:dft_sel I *D CF_BGR
*I *788:analog_ctrl[93] O *D afe_wb
*CAP
1 *791:dft_sel 2.16557e-05
2 *788:analog_ctrl[93] 0.000677991
3 *780:18 0.00098124
4 *780:16 0.00626357
5 *780:10 0.0516463
6 *780:8 0.0470203
7 *791:dft_sel *791:pd_ibg 0.000122643
8 *780:8 *784:10 0.00032865
9 *780:10 *784:10 0
10 *780:10 *784:18 0
11 *780:18 *782:22 0.00470463
12 *791:mux1sel[1] *791:dft_sel 0.000113667
13 *791:mux1sel[1] *780:18 1.31034e-05
14 *10:18 *780:16 0.00393461
15 *658:13 *780:10 0
16 *778:19 *780:18 0.00470605
*RES
1 *788:analog_ctrl[93] *780:8 5.4404 
2 *780:8 *780:10 142.589 
3 *780:10 *780:16 25.7124 
4 *780:16 *780:18 59.0179 
5 *780:18 *791:dft_sel 1.42857 
*END

*D_NET *781 0.138578
*CONN
*I *791:pd I *D CF_BGR
*I *788:analog_ctrl[94] O *D afe_wb
*CAP
1 *791:pd 0.000558634
2 *788:analog_ctrl[94] 0.00573565
3 *781:34 0.0302607
4 *781:32 0.0323088
5 *781:28 0.00360174
6 *781:10 0.00673062
7 *791:pd *791:pd_ibg 9.59896e-05
8 *791:pd *782:22 1.16781e-05
9 *781:10 *782:6 0.012576
10 *781:10 *784:10 0.020702
11 *788:adc_data[10] *781:32 0.000690275
12 *788:adc_data[4] *781:32 0.00152871
13 *8:14 *781:34 0.0144734
14 *12:32 *791:pd 0.000183428
15 *26:42 *781:34 0
16 *646:23 *781:28 0.000154725
17 *647:17 *781:28 8.22781e-05
18 *652:21 *781:32 0.000358099
19 *653:37 *781:28 0.000643818
20 *665:21 *781:28 0.000536796
21 *699:17 *781:28 0.000351953
22 *732:15 *781:32 0.00168001
23 *761:23 *781:28 0.000512437
24 *763:15 *781:28 0.000536796
25 *769:23 *781:32 0.00355305
26 *773:13 *781:28 0
27 *777:11 *781:10 0.000710051
*RES
1 *788:analog_ctrl[94] *781:10 48.6522 
2 *781:10 *781:28 45.0701 
3 *781:28 *781:32 17.4019 
4 *781:32 *781:34 108.391 
5 *781:34 *791:pd 9.84754 
*END

*D_NET *782 0.186721
*CONN
*I *791:pd_ibg I *D CF_BGR
*I *788:analog_ctrl[95] O *D afe_wb
*CAP
1 *791:pd_ibg 2.31484e-05
2 *788:analog_ctrl[95] 0
3 *782:22 0.00403057
4 *782:20 0.00400742
5 *782:18 0.00618449
6 *782:16 0.00624164
7 *782:6 0.025496
8 *782:4 0.0254388
9 *782:6 *784:10 0.000118307
10 *791:dft_sel *791:pd_ibg 0.000122643
11 *791:pd *791:pd_ibg 9.59896e-05
12 *791:pd *782:22 1.16781e-05
13 *686:13 *782:6 0.00112208
14 *751:9 *782:6 0.000246133
15 *751:11 *782:6 0.0103594
16 *754:9 *782:6 0.000246133
17 *762:35 *782:18 0.00155843
18 *766:17 *782:6 0.000246133
19 *767:11 *782:6 0.00924982
20 *767:11 *782:16 1.94879e-05
21 *768:23 *782:18 0.000365926
22 *768:25 *782:22 0
23 *772:11 *782:6 0.0613713
24 *775:33 *782:6 0.00498559
25 *775:45 *782:18 0
26 *778:11 *782:6 0.00539923
27 *778:11 *782:16 0
28 *778:19 *782:22 0.00214309
29 *779:9 *782:6 0.000357189
30 *780:18 *782:22 0.00470463
31 *781:10 *782:6 0.012576
*RES
1 *788:analog_ctrl[95] *782:4 3.41 
2 *782:4 *782:6 134.705 
3 *782:6 *782:16 11.6798 
4 *782:16 *782:18 116.768 
5 *782:18 *782:20 4.5 
6 *782:20 *782:22 112.295 
7 *782:22 *791:pd_ibg 1.44643 
*END

*D_NET *783 0.115111
*CONN
*I *791:finetune I *D CF_BGR
*I *788:analog_ctrl[96] O *D afe_wb
*CAP
1 *791:finetune 0.000123576
2 *788:analog_ctrl[96] 0.00587958
3 *783:17 0.0379161
4 *783:15 0.0436721
5 *6:10 *791:finetune 3.21738e-05
6 *670:9 *783:17 0.0264954
7 *677:10 *783:15 9.30897e-05
8 *738:11 *783:17 0.000898826
*RES
1 *788:analog_ctrl[96] *783:15 35.5314 
2 *783:15 *783:17 153.242 
3 *783:17 *791:finetune 8.27069 
*END

*D_NET *784 0.184802
*CONN
*I *791:en_startb I *D CF_BGR
*I *788:analog_ctrl[97] O *D afe_wb
*CAP
1 *791:en_startb 0.00442025
2 *788:analog_ctrl[97] 0.00998105
3 *784:18 0.0443689
4 *784:16 0.0406114
5 *784:10 0.0106438
6 *1:14 *791:en_startb 0.00349421
7 *658:13 *784:18 0.00590549
8 *686:13 *784:10 0.000169407
9 *721:23 *784:16 0.00176298
10 *758:17 *784:18 0.0227745
11 *766:17 *784:16 0.000417492
12 *769:19 *784:16 0.000758594
13 *771:9 *784:10 0.000246133
14 *771:11 *784:10 0.00418846
15 *773:11 *784:10 0.000229275
16 *773:13 *784:10 0.00837691
17 *777:11 *784:10 0.000233087
18 *778:11 *784:10 0.00507145
19 *780:8 *784:10 0.00032865
20 *780:10 *784:10 0
21 *780:10 *784:18 0
22 *781:10 *784:10 0.020702
23 *782:6 *784:10 0.000118307
*RES
1 *788:analog_ctrl[97] *784:10 49.611 
2 *784:10 *784:16 9.60553 
3 *784:16 *784:18 158.462 
4 *784:18 *791:en_startb 28.2692 
*END

*D_NET *787 0.149766
*CONN
*I *789:pd_ana I *D CF_ADC_SAR12
*I *790:pd_ana I *D CF_ADC_SAR12_sar_refs
*I *788:analog_ctrl[9] O *D afe_wb
*CAP
1 *789:pd_ana 0.000182673
2 *790:pd_ana 9.48038e-05
3 *788:analog_ctrl[9] 0.00298347
4 *787:35 0.0221746
5 *787:21 0.0157623
6 *787:19 0.0156675
7 *787:17 0.0307776
8 *787:9 0.0167502
9 *787:7 0.010948
10 *789:trimunit *789:pd_ana 4.67396e-05
11 *789:vssa *787:17 0
12 *789:vssa *787:35 0
13 *789:pd *789:pd_ana 3.96898e-05
14 *789:dft_inc[0] *789:pd_ana 0.000133706
15 *789:dft_outc[2] *789:pd_ana 0.000174866
16 *789:dft_outc[2] *787:35 0.0033727
17 *789:dft_outc[1] *789:pd_ana 5.11566e-05
18 *789:dft_outc[0] *789:pd_ana 6.87592e-05
19 *789:enable_hv *789:pd_ana 7.62699e-05
20 *790:pd *790:pd_ana 0.000116385
21 *790:sw_start *790:pd_ana 0
22 *790:sw_start *787:21 0.000149145
23 *676:5 *787:7 0.001965
24 *694:17 *787:17 0.00538047
25 *694:17 *787:35 0.0065147
26 *705:13 *787:17 0
27 *776:7 *787:7 0.00196183
28 *776:19 *787:21 0.000106477
29 *776:19 *787:35 0
30 *776:21 *787:35 0
31 *776:35 *787:21 0.0142667
*RES
1 *788:analog_ctrl[9] *787:7 15.7929 
2 *787:7 *787:9 161.625 
3 *787:9 *787:17 36.441 
4 *787:17 *787:19 3.41 
5 *787:19 *787:21 62.3486 
6 *787:21 *790:pd_ana 6.07964 
7 *787:17 *787:35 74.4073 
8 *787:35 *789:pd_ana 8.6412 
*END
