*SPEF "ieee 1481-1999"
*DESIGN "user_project_wrapper"
*DATE "21:32:37 Saturday September 05, 2026"
*VENDOR "The OpenROAD Project"
*PROGRAM "OpenROAD"
*VERSION "edf00dff99f6c40d67a30c0e22a8191c5d2ed9d6"
*DESIGN_FLOW "NAME_SCOPE LOCAL" "PIN_CAP NONE"
*DIVIDER /
*DELIMITER :
*BUS_DELIMITER []
*T_UNIT 1 NS
*C_UNIT 1 PF
*R_UNIT 1 OHM
*L_UNIT 1 HENRY

*NAME_MAP
*1 analog_io[0]
*2 analog_io[10]
*3 analog_io[11]
*4 analog_io[12]
*5 analog_io[13]
*6 analog_io[14]
*7 analog_io[15]
*8 analog_io[16]
*9 analog_io[17]
*10 analog_io[18]
*11 analog_io[19]
*12 analog_io[1]
*13 analog_io[20]
*14 analog_io[21]
*15 analog_io[22]
*16 analog_io[23]
*17 analog_io[24]
*18 analog_io[25]
*19 analog_io[26]
*20 analog_io[27]
*21 analog_io[28]
*22 analog_io[2]
*23 analog_io[3]
*24 analog_io[4]
*25 analog_io[5]
*26 analog_io[6]
*27 analog_io[7]
*28 analog_io[8]
*29 analog_io[9]
*30 io_in[0]
*31 io_in[10]
*32 io_in[11]
*33 io_in[12]
*34 io_in[13]
*35 io_in[14]
*36 io_in[15]
*37 io_in[16]
*38 io_in[17]
*39 io_in[18]
*40 io_in[19]
*41 io_in[1]
*42 io_in[20]
*43 io_in[21]
*44 io_in[22]
*45 io_in[23]
*46 io_in[24]
*47 io_in[25]
*48 io_in[26]
*49 io_in[27]
*50 io_in[28]
*51 io_in[29]
*52 io_in[2]
*53 io_in[30]
*54 io_in[31]
*55 io_in[32]
*56 io_in[33]
*57 io_in[34]
*58 io_in[35]
*59 io_in[36]
*60 io_in[37]
*61 io_in[3]
*62 io_in[4]
*63 io_in[5]
*64 io_in[6]
*65 io_in[7]
*66 io_in[8]
*67 io_in[9]
*68 io_oeb[0]
*69 io_oeb[10]
*70 io_oeb[11]
*71 io_oeb[12]
*72 io_oeb[13]
*73 io_oeb[14]
*74 io_oeb[15]
*75 io_oeb[16]
*76 io_oeb[17]
*77 io_oeb[18]
*78 io_oeb[19]
*79 io_oeb[1]
*80 io_oeb[20]
*81 io_oeb[21]
*82 io_oeb[22]
*83 io_oeb[23]
*84 io_oeb[24]
*85 io_oeb[25]
*86 io_oeb[26]
*87 io_oeb[27]
*88 io_oeb[28]
*89 io_oeb[29]
*90 io_oeb[2]
*91 io_oeb[30]
*92 io_oeb[31]
*93 io_oeb[32]
*94 io_oeb[33]
*95 io_oeb[34]
*96 io_oeb[35]
*97 io_oeb[36]
*98 io_oeb[37]
*99 io_oeb[3]
*100 io_oeb[4]
*101 io_oeb[5]
*102 io_oeb[6]
*103 io_oeb[7]
*104 io_oeb[8]
*105 io_oeb[9]
*106 io_out[0]
*107 io_out[10]
*108 io_out[11]
*109 io_out[12]
*110 io_out[13]
*111 io_out[14]
*112 io_out[15]
*113 io_out[16]
*114 io_out[17]
*115 io_out[18]
*116 io_out[19]
*117 io_out[1]
*118 io_out[20]
*119 io_out[21]
*120 io_out[22]
*121 io_out[23]
*122 io_out[24]
*123 io_out[25]
*124 io_out[26]
*125 io_out[27]
*126 io_out[28]
*127 io_out[29]
*128 io_out[2]
*129 io_out[30]
*130 io_out[31]
*131 io_out[32]
*132 io_out[33]
*133 io_out[34]
*134 io_out[35]
*135 io_out[36]
*136 io_out[37]
*137 io_out[3]
*138 io_out[4]
*139 io_out[5]
*140 io_out[6]
*141 io_out[7]
*142 io_out[8]
*143 io_out[9]
*144 la_data_in[0]
*145 la_data_in[100]
*146 la_data_in[101]
*147 la_data_in[102]
*148 la_data_in[103]
*149 la_data_in[104]
*150 la_data_in[105]
*151 la_data_in[106]
*152 la_data_in[107]
*153 la_data_in[108]
*154 la_data_in[109]
*155 la_data_in[10]
*156 la_data_in[110]
*157 la_data_in[111]
*158 la_data_in[112]
*159 la_data_in[113]
*160 la_data_in[114]
*161 la_data_in[115]
*162 la_data_in[116]
*163 la_data_in[117]
*164 la_data_in[118]
*165 la_data_in[119]
*166 la_data_in[11]
*167 la_data_in[120]
*168 la_data_in[121]
*169 la_data_in[122]
*170 la_data_in[123]
*171 la_data_in[124]
*172 la_data_in[125]
*173 la_data_in[126]
*174 la_data_in[127]
*175 la_data_in[12]
*176 la_data_in[13]
*177 la_data_in[14]
*178 la_data_in[15]
*179 la_data_in[16]
*180 la_data_in[17]
*181 la_data_in[18]
*182 la_data_in[19]
*183 la_data_in[1]
*184 la_data_in[20]
*185 la_data_in[21]
*186 la_data_in[22]
*187 la_data_in[23]
*188 la_data_in[24]
*189 la_data_in[25]
*190 la_data_in[26]
*191 la_data_in[27]
*192 la_data_in[28]
*193 la_data_in[29]
*194 la_data_in[2]
*195 la_data_in[30]
*196 la_data_in[31]
*197 la_data_in[32]
*198 la_data_in[33]
*199 la_data_in[34]
*200 la_data_in[35]
*201 la_data_in[36]
*202 la_data_in[37]
*203 la_data_in[38]
*204 la_data_in[39]
*205 la_data_in[3]
*206 la_data_in[40]
*207 la_data_in[41]
*208 la_data_in[42]
*209 la_data_in[43]
*210 la_data_in[44]
*211 la_data_in[45]
*212 la_data_in[46]
*213 la_data_in[47]
*214 la_data_in[48]
*215 la_data_in[49]
*216 la_data_in[4]
*217 la_data_in[50]
*218 la_data_in[51]
*219 la_data_in[52]
*220 la_data_in[53]
*221 la_data_in[54]
*222 la_data_in[55]
*223 la_data_in[56]
*224 la_data_in[57]
*225 la_data_in[58]
*226 la_data_in[59]
*227 la_data_in[5]
*228 la_data_in[60]
*229 la_data_in[61]
*230 la_data_in[62]
*231 la_data_in[63]
*232 la_data_in[64]
*233 la_data_in[65]
*234 la_data_in[66]
*235 la_data_in[67]
*236 la_data_in[68]
*237 la_data_in[69]
*238 la_data_in[6]
*239 la_data_in[70]
*240 la_data_in[71]
*241 la_data_in[72]
*242 la_data_in[73]
*243 la_data_in[74]
*244 la_data_in[75]
*245 la_data_in[76]
*246 la_data_in[77]
*247 la_data_in[78]
*248 la_data_in[79]
*249 la_data_in[7]
*250 la_data_in[80]
*251 la_data_in[81]
*252 la_data_in[82]
*253 la_data_in[83]
*254 la_data_in[84]
*255 la_data_in[85]
*256 la_data_in[86]
*257 la_data_in[87]
*258 la_data_in[88]
*259 la_data_in[89]
*260 la_data_in[8]
*261 la_data_in[90]
*262 la_data_in[91]
*263 la_data_in[92]
*264 la_data_in[93]
*265 la_data_in[94]
*266 la_data_in[95]
*267 la_data_in[96]
*268 la_data_in[97]
*269 la_data_in[98]
*270 la_data_in[99]
*271 la_data_in[9]
*272 la_data_out[0]
*273 la_data_out[100]
*274 la_data_out[101]
*275 la_data_out[102]
*276 la_data_out[103]
*277 la_data_out[104]
*278 la_data_out[105]
*279 la_data_out[106]
*280 la_data_out[107]
*281 la_data_out[108]
*282 la_data_out[109]
*283 la_data_out[10]
*284 la_data_out[110]
*285 la_data_out[111]
*286 la_data_out[112]
*287 la_data_out[113]
*288 la_data_out[114]
*289 la_data_out[115]
*290 la_data_out[116]
*291 la_data_out[117]
*292 la_data_out[118]
*293 la_data_out[119]
*294 la_data_out[11]
*295 la_data_out[120]
*296 la_data_out[121]
*297 la_data_out[122]
*298 la_data_out[123]
*299 la_data_out[124]
*300 la_data_out[125]
*301 la_data_out[126]
*302 la_data_out[127]
*303 la_data_out[12]
*304 la_data_out[13]
*305 la_data_out[14]
*306 la_data_out[15]
*307 la_data_out[16]
*308 la_data_out[17]
*309 la_data_out[18]
*310 la_data_out[19]
*311 la_data_out[1]
*312 la_data_out[20]
*313 la_data_out[21]
*314 la_data_out[22]
*315 la_data_out[23]
*316 la_data_out[24]
*317 la_data_out[25]
*318 la_data_out[26]
*319 la_data_out[27]
*320 la_data_out[28]
*321 la_data_out[29]
*322 la_data_out[2]
*323 la_data_out[30]
*324 la_data_out[31]
*325 la_data_out[32]
*326 la_data_out[33]
*327 la_data_out[34]
*328 la_data_out[35]
*329 la_data_out[36]
*330 la_data_out[37]
*331 la_data_out[38]
*332 la_data_out[39]
*333 la_data_out[3]
*334 la_data_out[40]
*335 la_data_out[41]
*336 la_data_out[42]
*337 la_data_out[43]
*338 la_data_out[44]
*339 la_data_out[45]
*340 la_data_out[46]
*341 la_data_out[47]
*342 la_data_out[48]
*343 la_data_out[49]
*344 la_data_out[4]
*345 la_data_out[50]
*346 la_data_out[51]
*347 la_data_out[52]
*348 la_data_out[53]
*349 la_data_out[54]
*350 la_data_out[55]
*351 la_data_out[56]
*352 la_data_out[57]
*353 la_data_out[58]
*354 la_data_out[59]
*355 la_data_out[5]
*356 la_data_out[60]
*357 la_data_out[61]
*358 la_data_out[62]
*359 la_data_out[63]
*360 la_data_out[64]
*361 la_data_out[65]
*362 la_data_out[66]
*363 la_data_out[67]
*364 la_data_out[68]
*365 la_data_out[69]
*366 la_data_out[6]
*367 la_data_out[70]
*368 la_data_out[71]
*369 la_data_out[72]
*370 la_data_out[73]
*371 la_data_out[74]
*372 la_data_out[75]
*373 la_data_out[76]
*374 la_data_out[77]
*375 la_data_out[78]
*376 la_data_out[79]
*377 la_data_out[7]
*378 la_data_out[80]
*379 la_data_out[81]
*380 la_data_out[82]
*381 la_data_out[83]
*382 la_data_out[84]
*383 la_data_out[85]
*384 la_data_out[86]
*385 la_data_out[87]
*386 la_data_out[88]
*387 la_data_out[89]
*388 la_data_out[8]
*389 la_data_out[90]
*390 la_data_out[91]
*391 la_data_out[92]
*392 la_data_out[93]
*393 la_data_out[94]
*394 la_data_out[95]
*395 la_data_out[96]
*396 la_data_out[97]
*397 la_data_out[98]
*398 la_data_out[99]
*399 la_data_out[9]
*400 la_oenb[0]
*401 la_oenb[100]
*402 la_oenb[101]
*403 la_oenb[102]
*404 la_oenb[103]
*405 la_oenb[104]
*406 la_oenb[105]
*407 la_oenb[106]
*408 la_oenb[107]
*409 la_oenb[108]
*410 la_oenb[109]
*411 la_oenb[10]
*412 la_oenb[110]
*413 la_oenb[111]
*414 la_oenb[112]
*415 la_oenb[113]
*416 la_oenb[114]
*417 la_oenb[115]
*418 la_oenb[116]
*419 la_oenb[117]
*420 la_oenb[118]
*421 la_oenb[119]
*422 la_oenb[11]
*423 la_oenb[120]
*424 la_oenb[121]
*425 la_oenb[122]
*426 la_oenb[123]
*427 la_oenb[124]
*428 la_oenb[125]
*429 la_oenb[126]
*430 la_oenb[127]
*431 la_oenb[12]
*432 la_oenb[13]
*433 la_oenb[14]
*434 la_oenb[15]
*435 la_oenb[16]
*436 la_oenb[17]
*437 la_oenb[18]
*438 la_oenb[19]
*439 la_oenb[1]
*440 la_oenb[20]
*441 la_oenb[21]
*442 la_oenb[22]
*443 la_oenb[23]
*444 la_oenb[24]
*445 la_oenb[25]
*446 la_oenb[26]
*447 la_oenb[27]
*448 la_oenb[28]
*449 la_oenb[29]
*450 la_oenb[2]
*451 la_oenb[30]
*452 la_oenb[31]
*453 la_oenb[32]
*454 la_oenb[33]
*455 la_oenb[34]
*456 la_oenb[35]
*457 la_oenb[36]
*458 la_oenb[37]
*459 la_oenb[38]
*460 la_oenb[39]
*461 la_oenb[3]
*462 la_oenb[40]
*463 la_oenb[41]
*464 la_oenb[42]
*465 la_oenb[43]
*466 la_oenb[44]
*467 la_oenb[45]
*468 la_oenb[46]
*469 la_oenb[47]
*470 la_oenb[48]
*471 la_oenb[49]
*472 la_oenb[4]
*473 la_oenb[50]
*474 la_oenb[51]
*475 la_oenb[52]
*476 la_oenb[53]
*477 la_oenb[54]
*478 la_oenb[55]
*479 la_oenb[56]
*480 la_oenb[57]
*481 la_oenb[58]
*482 la_oenb[59]
*483 la_oenb[5]
*484 la_oenb[60]
*485 la_oenb[61]
*486 la_oenb[62]
*487 la_oenb[63]
*488 la_oenb[64]
*489 la_oenb[65]
*490 la_oenb[66]
*491 la_oenb[67]
*492 la_oenb[68]
*493 la_oenb[69]
*494 la_oenb[6]
*495 la_oenb[70]
*496 la_oenb[71]
*497 la_oenb[72]
*498 la_oenb[73]
*499 la_oenb[74]
*500 la_oenb[75]
*501 la_oenb[76]
*502 la_oenb[77]
*503 la_oenb[78]
*504 la_oenb[79]
*505 la_oenb[7]
*506 la_oenb[80]
*507 la_oenb[81]
*508 la_oenb[82]
*509 la_oenb[83]
*510 la_oenb[84]
*511 la_oenb[85]
*512 la_oenb[86]
*513 la_oenb[87]
*514 la_oenb[88]
*515 la_oenb[89]
*516 la_oenb[8]
*517 la_oenb[90]
*518 la_oenb[91]
*519 la_oenb[92]
*520 la_oenb[93]
*521 la_oenb[94]
*522 la_oenb[95]
*523 la_oenb[96]
*524 la_oenb[97]
*525 la_oenb[98]
*526 la_oenb[99]
*527 la_oenb[9]
*528 user_clock2
*529 user_irq[0]
*530 user_irq[1]
*531 user_irq[2]
*540 wb_clk_i
*541 wb_rst_i
*542 wbs_ack_o
*543 wbs_adr_i[0]
*544 wbs_adr_i[10]
*545 wbs_adr_i[11]
*546 wbs_adr_i[12]
*547 wbs_adr_i[13]
*548 wbs_adr_i[14]
*549 wbs_adr_i[15]
*550 wbs_adr_i[16]
*551 wbs_adr_i[17]
*552 wbs_adr_i[18]
*553 wbs_adr_i[19]
*554 wbs_adr_i[1]
*555 wbs_adr_i[20]
*556 wbs_adr_i[21]
*557 wbs_adr_i[22]
*558 wbs_adr_i[23]
*559 wbs_adr_i[24]
*560 wbs_adr_i[25]
*561 wbs_adr_i[26]
*562 wbs_adr_i[27]
*563 wbs_adr_i[28]
*564 wbs_adr_i[29]
*565 wbs_adr_i[2]
*566 wbs_adr_i[30]
*567 wbs_adr_i[31]
*568 wbs_adr_i[3]
*569 wbs_adr_i[4]
*570 wbs_adr_i[5]
*571 wbs_adr_i[6]
*572 wbs_adr_i[7]
*573 wbs_adr_i[8]
*574 wbs_adr_i[9]
*575 wbs_cyc_i
*576 wbs_dat_i[0]
*577 wbs_dat_i[10]
*578 wbs_dat_i[11]
*579 wbs_dat_i[12]
*580 wbs_dat_i[13]
*581 wbs_dat_i[14]
*582 wbs_dat_i[15]
*583 wbs_dat_i[16]
*584 wbs_dat_i[17]
*585 wbs_dat_i[18]
*586 wbs_dat_i[19]
*587 wbs_dat_i[1]
*588 wbs_dat_i[20]
*589 wbs_dat_i[21]
*590 wbs_dat_i[22]
*591 wbs_dat_i[23]
*592 wbs_dat_i[24]
*593 wbs_dat_i[25]
*594 wbs_dat_i[26]
*595 wbs_dat_i[27]
*596 wbs_dat_i[28]
*597 wbs_dat_i[29]
*598 wbs_dat_i[2]
*599 wbs_dat_i[30]
*600 wbs_dat_i[31]
*601 wbs_dat_i[3]
*602 wbs_dat_i[4]
*603 wbs_dat_i[5]
*604 wbs_dat_i[6]
*605 wbs_dat_i[7]
*606 wbs_dat_i[8]
*607 wbs_dat_i[9]
*608 wbs_dat_o[0]
*609 wbs_dat_o[10]
*610 wbs_dat_o[11]
*611 wbs_dat_o[12]
*612 wbs_dat_o[13]
*613 wbs_dat_o[14]
*614 wbs_dat_o[15]
*615 wbs_dat_o[16]
*616 wbs_dat_o[17]
*617 wbs_dat_o[18]
*618 wbs_dat_o[19]
*619 wbs_dat_o[1]
*620 wbs_dat_o[20]
*621 wbs_dat_o[21]
*622 wbs_dat_o[22]
*623 wbs_dat_o[23]
*624 wbs_dat_o[24]
*625 wbs_dat_o[25]
*626 wbs_dat_o[26]
*627 wbs_dat_o[27]
*628 wbs_dat_o[28]
*629 wbs_dat_o[29]
*630 wbs_dat_o[2]
*631 wbs_dat_o[30]
*632 wbs_dat_o[31]
*633 wbs_dat_o[3]
*634 wbs_dat_o[4]
*635 wbs_dat_o[5]
*636 wbs_dat_o[6]
*637 wbs_dat_o[7]
*638 wbs_dat_o[8]
*639 wbs_dat_o[9]
*640 wbs_sel_i[0]
*641 wbs_sel_i[1]
*642 wbs_sel_i[2]
*643 wbs_sel_i[3]
*644 wbs_stb_i
*645 wbs_we_i
*646 afe_ibias
*647 afe_nbias
*648 afe_refby2
*649 afe_refhi
*650 afe_vout
*651 afe_vref
*652 u_cf_adc_sar12
*653 u_cf_adc_sar12_sar_refs
*654 u_cf_bgr
*655 u_cf_buf_hiz
*656 u_cf_refbuf

*PORTS
analog_io[0] I
analog_io[10] I
analog_io[11] I
analog_io[12] I
analog_io[13] I
analog_io[14] I
analog_io[15] I
analog_io[16] I
analog_io[17] I
analog_io[18] I
analog_io[19] I
analog_io[1] I
analog_io[20] I
analog_io[21] I
analog_io[22] I
analog_io[23] I
analog_io[24] I
analog_io[25] I
analog_io[26] I
analog_io[27] I
analog_io[28] I
analog_io[2] I
analog_io[3] I
analog_io[4] I
analog_io[5] I
analog_io[6] I
analog_io[7] I
analog_io[8] I
analog_io[9] I
io_in[0] I
io_in[10] I
io_in[11] I
io_in[12] I
io_in[13] I
io_in[14] I
io_in[15] I
io_in[16] I
io_in[17] I
io_in[18] I
io_in[19] I
io_in[1] I
io_in[20] I
io_in[21] I
io_in[22] I
io_in[23] I
io_in[24] I
io_in[25] I
io_in[26] I
io_in[27] I
io_in[28] I
io_in[29] I
io_in[2] I
io_in[30] I
io_in[31] I
io_in[32] I
io_in[33] I
io_in[34] I
io_in[35] I
io_in[36] I
io_in[37] I
io_in[3] I
io_in[4] I
io_in[5] I
io_in[6] I
io_in[7] I
io_in[8] I
io_in[9] I
io_oeb[0] O
io_oeb[10] O
io_oeb[11] O
io_oeb[12] O
io_oeb[13] O
io_oeb[14] O
io_oeb[15] O
io_oeb[16] O
io_oeb[17] O
io_oeb[18] O
io_oeb[19] O
io_oeb[1] O
io_oeb[20] O
io_oeb[21] O
io_oeb[22] O
io_oeb[23] O
io_oeb[24] O
io_oeb[25] O
io_oeb[26] O
io_oeb[27] O
io_oeb[28] O
io_oeb[29] O
io_oeb[2] O
io_oeb[30] O
io_oeb[31] O
io_oeb[32] O
io_oeb[33] O
io_oeb[34] O
io_oeb[35] O
io_oeb[36] O
io_oeb[37] O
io_oeb[3] O
io_oeb[4] O
io_oeb[5] O
io_oeb[6] O
io_oeb[7] O
io_oeb[8] O
io_oeb[9] O
io_out[0] O
io_out[10] O
io_out[11] O
io_out[12] O
io_out[13] O
io_out[14] O
io_out[15] O
io_out[16] O
io_out[17] O
io_out[18] O
io_out[19] O
io_out[1] O
io_out[20] O
io_out[21] O
io_out[22] O
io_out[23] O
io_out[24] O
io_out[25] O
io_out[26] O
io_out[27] O
io_out[28] O
io_out[29] O
io_out[2] O
io_out[30] O
io_out[31] O
io_out[32] O
io_out[33] O
io_out[34] O
io_out[35] O
io_out[36] O
io_out[37] O
io_out[3] O
io_out[4] O
io_out[5] O
io_out[6] O
io_out[7] O
io_out[8] O
io_out[9] O
la_data_in[0] I
la_data_in[100] I
la_data_in[101] I
la_data_in[102] I
la_data_in[103] I
la_data_in[104] I
la_data_in[105] I
la_data_in[106] I
la_data_in[107] I
la_data_in[108] I
la_data_in[109] I
la_data_in[10] I
la_data_in[110] I
la_data_in[111] I
la_data_in[112] I
la_data_in[113] I
la_data_in[114] I
la_data_in[115] I
la_data_in[116] I
la_data_in[117] I
la_data_in[118] I
la_data_in[119] I
la_data_in[11] I
la_data_in[120] I
la_data_in[121] I
la_data_in[122] I
la_data_in[123] I
la_data_in[124] I
la_data_in[125] I
la_data_in[126] I
la_data_in[127] I
la_data_in[12] I
la_data_in[13] I
la_data_in[14] I
la_data_in[15] I
la_data_in[16] I
la_data_in[17] I
la_data_in[18] I
la_data_in[19] I
la_data_in[1] I
la_data_in[20] I
la_data_in[21] I
la_data_in[22] I
la_data_in[23] I
la_data_in[24] I
la_data_in[25] I
la_data_in[26] I
la_data_in[27] I
la_data_in[28] I
la_data_in[29] I
la_data_in[2] I
la_data_in[30] I
la_data_in[31] I
la_data_in[32] I
la_data_in[33] I
la_data_in[34] I
la_data_in[35] I
la_data_in[36] I
la_data_in[37] I
la_data_in[38] I
la_data_in[39] I
la_data_in[3] I
la_data_in[40] I
la_data_in[41] I
la_data_in[42] I
la_data_in[43] I
la_data_in[44] I
la_data_in[45] I
la_data_in[46] I
la_data_in[47] I
la_data_in[48] I
la_data_in[49] I
la_data_in[4] I
la_data_in[50] I
la_data_in[51] I
la_data_in[52] I
la_data_in[53] I
la_data_in[54] I
la_data_in[55] I
la_data_in[56] I
la_data_in[57] I
la_data_in[58] I
la_data_in[59] I
la_data_in[5] I
la_data_in[60] I
la_data_in[61] I
la_data_in[62] I
la_data_in[63] I
la_data_in[64] I
la_data_in[65] I
la_data_in[66] I
la_data_in[67] I
la_data_in[68] I
la_data_in[69] I
la_data_in[6] I
la_data_in[70] I
la_data_in[71] I
la_data_in[72] I
la_data_in[73] I
la_data_in[74] I
la_data_in[75] I
la_data_in[76] I
la_data_in[77] I
la_data_in[78] I
la_data_in[79] I
la_data_in[7] I
la_data_in[80] I
la_data_in[81] I
la_data_in[82] I
la_data_in[83] I
la_data_in[84] I
la_data_in[85] I
la_data_in[86] I
la_data_in[87] I
la_data_in[88] I
la_data_in[89] I
la_data_in[8] I
la_data_in[90] I
la_data_in[91] I
la_data_in[92] I
la_data_in[93] I
la_data_in[94] I
la_data_in[95] I
la_data_in[96] I
la_data_in[97] I
la_data_in[98] I
la_data_in[99] I
la_data_in[9] I
la_data_out[0] O
la_data_out[100] O
la_data_out[101] O
la_data_out[102] O
la_data_out[103] O
la_data_out[104] O
la_data_out[105] O
la_data_out[106] O
la_data_out[107] O
la_data_out[108] O
la_data_out[109] O
la_data_out[10] O
la_data_out[110] O
la_data_out[111] O
la_data_out[112] O
la_data_out[113] O
la_data_out[114] O
la_data_out[115] O
la_data_out[116] O
la_data_out[117] O
la_data_out[118] O
la_data_out[119] O
la_data_out[11] O
la_data_out[120] O
la_data_out[121] O
la_data_out[122] O
la_data_out[123] O
la_data_out[124] O
la_data_out[125] O
la_data_out[126] O
la_data_out[127] O
la_data_out[12] O
la_data_out[13] O
la_data_out[14] O
la_data_out[15] O
la_data_out[16] O
la_data_out[17] O
la_data_out[18] O
la_data_out[19] O
la_data_out[1] O
la_data_out[20] O
la_data_out[21] O
la_data_out[22] O
la_data_out[23] O
la_data_out[24] O
la_data_out[25] O
la_data_out[26] O
la_data_out[27] O
la_data_out[28] O
la_data_out[29] O
la_data_out[2] O
la_data_out[30] O
la_data_out[31] O
la_data_out[32] O
la_data_out[33] O
la_data_out[34] O
la_data_out[35] O
la_data_out[36] O
la_data_out[37] O
la_data_out[38] O
la_data_out[39] O
la_data_out[3] O
la_data_out[40] O
la_data_out[41] O
la_data_out[42] O
la_data_out[43] O
la_data_out[44] O
la_data_out[45] O
la_data_out[46] O
la_data_out[47] O
la_data_out[48] O
la_data_out[49] O
la_data_out[4] O
la_data_out[50] O
la_data_out[51] O
la_data_out[52] O
la_data_out[53] O
la_data_out[54] O
la_data_out[55] O
la_data_out[56] O
la_data_out[57] O
la_data_out[58] O
la_data_out[59] O
la_data_out[5] O
la_data_out[60] O
la_data_out[61] O
la_data_out[62] O
la_data_out[63] O
la_data_out[64] O
la_data_out[65] O
la_data_out[66] O
la_data_out[67] O
la_data_out[68] O
la_data_out[69] O
la_data_out[6] O
la_data_out[70] O
la_data_out[71] O
la_data_out[72] O
la_data_out[73] O
la_data_out[74] O
la_data_out[75] O
la_data_out[76] O
la_data_out[77] O
la_data_out[78] O
la_data_out[79] O
la_data_out[7] O
la_data_out[80] O
la_data_out[81] O
la_data_out[82] O
la_data_out[83] O
la_data_out[84] O
la_data_out[85] O
la_data_out[86] O
la_data_out[87] O
la_data_out[88] O
la_data_out[89] O
la_data_out[8] O
la_data_out[90] O
la_data_out[91] O
la_data_out[92] O
la_data_out[93] O
la_data_out[94] O
la_data_out[95] O
la_data_out[96] O
la_data_out[97] O
la_data_out[98] O
la_data_out[99] O
la_data_out[9] O
la_oenb[0] I
la_oenb[100] I
la_oenb[101] I
la_oenb[102] I
la_oenb[103] I
la_oenb[104] I
la_oenb[105] I
la_oenb[106] I
la_oenb[107] I
la_oenb[108] I
la_oenb[109] I
la_oenb[10] I
la_oenb[110] I
la_oenb[111] I
la_oenb[112] I
la_oenb[113] I
la_oenb[114] I
la_oenb[115] I
la_oenb[116] I
la_oenb[117] I
la_oenb[118] I
la_oenb[119] I
la_oenb[11] I
la_oenb[120] I
la_oenb[121] I
la_oenb[122] I
la_oenb[123] I
la_oenb[124] I
la_oenb[125] I
la_oenb[126] I
la_oenb[127] I
la_oenb[12] I
la_oenb[13] I
la_oenb[14] I
la_oenb[15] I
la_oenb[16] I
la_oenb[17] I
la_oenb[18] I
la_oenb[19] I
la_oenb[1] I
la_oenb[20] I
la_oenb[21] I
la_oenb[22] I
la_oenb[23] I
la_oenb[24] I
la_oenb[25] I
la_oenb[26] I
la_oenb[27] I
la_oenb[28] I
la_oenb[29] I
la_oenb[2] I
la_oenb[30] I
la_oenb[31] I
la_oenb[32] I
la_oenb[33] I
la_oenb[34] I
la_oenb[35] I
la_oenb[36] I
la_oenb[37] I
la_oenb[38] I
la_oenb[39] I
la_oenb[3] I
la_oenb[40] I
la_oenb[41] I
la_oenb[42] I
la_oenb[43] I
la_oenb[44] I
la_oenb[45] I
la_oenb[46] I
la_oenb[47] I
la_oenb[48] I
la_oenb[49] I
la_oenb[4] I
la_oenb[50] I
la_oenb[51] I
la_oenb[52] I
la_oenb[53] I
la_oenb[54] I
la_oenb[55] I
la_oenb[56] I
la_oenb[57] I
la_oenb[58] I
la_oenb[59] I
la_oenb[5] I
la_oenb[60] I
la_oenb[61] I
la_oenb[62] I
la_oenb[63] I
la_oenb[64] I
la_oenb[65] I
la_oenb[66] I
la_oenb[67] I
la_oenb[68] I
la_oenb[69] I
la_oenb[6] I
la_oenb[70] I
la_oenb[71] I
la_oenb[72] I
la_oenb[73] I
la_oenb[74] I
la_oenb[75] I
la_oenb[76] I
la_oenb[77] I
la_oenb[78] I
la_oenb[79] I
la_oenb[7] I
la_oenb[80] I
la_oenb[81] I
la_oenb[82] I
la_oenb[83] I
la_oenb[84] I
la_oenb[85] I
la_oenb[86] I
la_oenb[87] I
la_oenb[88] I
la_oenb[89] I
la_oenb[8] I
la_oenb[90] I
la_oenb[91] I
la_oenb[92] I
la_oenb[93] I
la_oenb[94] I
la_oenb[95] I
la_oenb[96] I
la_oenb[97] I
la_oenb[98] I
la_oenb[99] I
la_oenb[9] I
user_clock2 I
user_irq[0] O
user_irq[1] O
user_irq[2] O
wb_clk_i I
wb_rst_i I
wbs_ack_o O
wbs_adr_i[0] I
wbs_adr_i[10] I
wbs_adr_i[11] I
wbs_adr_i[12] I
wbs_adr_i[13] I
wbs_adr_i[14] I
wbs_adr_i[15] I
wbs_adr_i[16] I
wbs_adr_i[17] I
wbs_adr_i[18] I
wbs_adr_i[19] I
wbs_adr_i[1] I
wbs_adr_i[20] I
wbs_adr_i[21] I
wbs_adr_i[22] I
wbs_adr_i[23] I
wbs_adr_i[24] I
wbs_adr_i[25] I
wbs_adr_i[26] I
wbs_adr_i[27] I
wbs_adr_i[28] I
wbs_adr_i[29] I
wbs_adr_i[2] I
wbs_adr_i[30] I
wbs_adr_i[31] I
wbs_adr_i[3] I
wbs_adr_i[4] I
wbs_adr_i[5] I
wbs_adr_i[6] I
wbs_adr_i[7] I
wbs_adr_i[8] I
wbs_adr_i[9] I
wbs_cyc_i I
wbs_dat_i[0] I
wbs_dat_i[10] I
wbs_dat_i[11] I
wbs_dat_i[12] I
wbs_dat_i[13] I
wbs_dat_i[14] I
wbs_dat_i[15] I
wbs_dat_i[16] I
wbs_dat_i[17] I
wbs_dat_i[18] I
wbs_dat_i[19] I
wbs_dat_i[1] I
wbs_dat_i[20] I
wbs_dat_i[21] I
wbs_dat_i[22] I
wbs_dat_i[23] I
wbs_dat_i[24] I
wbs_dat_i[25] I
wbs_dat_i[26] I
wbs_dat_i[27] I
wbs_dat_i[28] I
wbs_dat_i[29] I
wbs_dat_i[2] I
wbs_dat_i[30] I
wbs_dat_i[31] I
wbs_dat_i[3] I
wbs_dat_i[4] I
wbs_dat_i[5] I
wbs_dat_i[6] I
wbs_dat_i[7] I
wbs_dat_i[8] I
wbs_dat_i[9] I
wbs_dat_o[0] O
wbs_dat_o[10] O
wbs_dat_o[11] O
wbs_dat_o[12] O
wbs_dat_o[13] O
wbs_dat_o[14] O
wbs_dat_o[15] O
wbs_dat_o[16] O
wbs_dat_o[17] O
wbs_dat_o[18] O
wbs_dat_o[19] O
wbs_dat_o[1] O
wbs_dat_o[20] O
wbs_dat_o[21] O
wbs_dat_o[22] O
wbs_dat_o[23] O
wbs_dat_o[24] O
wbs_dat_o[25] O
wbs_dat_o[26] O
wbs_dat_o[27] O
wbs_dat_o[28] O
wbs_dat_o[29] O
wbs_dat_o[2] O
wbs_dat_o[30] O
wbs_dat_o[31] O
wbs_dat_o[3] O
wbs_dat_o[4] O
wbs_dat_o[5] O
wbs_dat_o[6] O
wbs_dat_o[7] O
wbs_dat_o[8] O
wbs_dat_o[9] O
wbs_sel_i[0] I
wbs_sel_i[1] I
wbs_sel_i[2] I
wbs_sel_i[3] I
wbs_stb_i I
wbs_we_i I

*D_NET *1 0.323227
*CONN
*P analog_io[0] I
*I *654:vb2_fast I *D CF_BGR
*CAP
1 analog_io[0] 0.141429
2 *654:vb2_fast 0.00403483
3 *1:9 0.0201849
4 *1:7 0.0161501
5 *1:5 0.141429
*RES
1 analog_io[0] *1:5 473.196 
2 *1:5 *1:7 8 
3 *1:7 *1:9 374.121 
4 *1:9 *654:vb2_fast 49.6747 
*END

*D_NET *2 0.703358
*CONN
*P analog_io[10] I
*I *655:vbnt I *D CF_BUF_HIZ
*CAP
1 analog_io[10] 0.123977
2 *655:vbnt 0.00495533
3 *2:13 0.0204226
4 *2:11 0.0154673
5 *2:9 0.0494693
6 *2:7 0.0494693
7 *2:5 0.123977
8 *655:vbnt *144:21 3.31968e-05
9 *2:9 *5:9 0.0856671
10 *2:9 *12:13 0.184169
11 *2:9 *150:15 0
12 *2:13 *5:13 0.013217
13 *2:13 *240:21 0.0162757
14 *2:13 *650:10 0.0162582
*RES
1 analog_io[10] *2:5 2874.97 
2 *2:5 *2:7 8 
3 *2:7 *2:9 339.83 
4 *2:9 *2:11 8 
5 *2:11 *2:13 529.768 
6 *2:13 *655:vbnt 32.4891 
*END

*D_NET *3 0.54813
*CONN
*P analog_io[11] I
*I *655:vbpb I *D CF_BUF_HIZ
*CAP
1 analog_io[11] 0.000100373
2 *655:vbpb 0.00018005
3 *3:25 0.0186737
4 *3:23 0.0184937
5 *3:21 0.0475307
6 *3:19 0.0475307
7 *3:17 0.127637
8 *3:15 0.127637
9 *3:13 0.0175611
10 *3:11 0.0176615
11 *3:21 *6:9 0
12 *3:21 *235:15 0
13 *3:21 *259:19 0.125125
14 *3:25 *22:17 0
15 *3:25 *253:15 0
*RES
1 analog_io[11] *3:11 10.7239 
2 *3:11 *3:13 58.7888 
3 *3:13 *3:15 8 
4 *3:15 *3:17 2953.92 
5 *3:17 *3:19 8 
6 *3:19 *3:21 238.293 
7 *3:21 *3:23 8 
8 *3:23 *3:25 63.658 
9 *3:25 *655:vbpb 16.6141 
*END

*D_NET *4 0.462933
*CONN
*P analog_io[12] I
*I *655:vbpc I *D CF_BUF_HIZ
*CAP
1 analog_io[12] 0.000100899
2 *655:vbpc 1.37495e-05
3 *4:37 0.00281199
4 *4:35 0.00328363
5 *4:29 0.00758838
6 *4:21 0.0233948
7 *4:19 0.0162918
8 *4:17 0.128665
9 *4:15 0.128665
10 *4:13 0.0418767
11 *4:11 0.0419776
12 *4:21 *211:17 2.81521e-05
13 *4:21 *213:16 0.00477953
14 *4:21 *256:15 0.0509282
15 *4:21 *263:15 0
16 *4:29 *6:13 0
17 *4:29 *7:21 0.00490667
18 *4:35 *655:e_pd 0.0005683
19 *4:35 *7:21 0.000192629
20 *4:37 *655:e_pd 1.13812e-05
21 *4:37 *655:vbnc 9.45898e-06
22 *4:37 *7:21 0.00300203
23 *4:37 *144:21 0.003838
*RES
1 analog_io[12] *4:11 10.7239 
2 *4:11 *4:13 139.933 
3 *4:13 *4:15 8 
4 *4:15 *4:17 2974.34 
5 *4:17 *4:19 8 
6 *4:19 *4:21 93.8653 
7 *4:21 *4:29 47.3469 
8 *4:29 *4:35 22.5 
9 *4:35 *4:37 93.7736 
10 *4:37 *655:vbpc 0.310714 
*END

*D_NET *5 0.454778
*CONN
*P analog_io[13] I
*I *655:vbnc I *D CF_BUF_HIZ
*CAP
1 analog_io[13] 0.124027
2 *655:vbnc 0.00347972
3 *5:13 0.0134849
4 *5:11 0.0100052
5 *5:9 0.0304151
6 *5:7 0.0304151
7 *5:5 0.124027
8 *655:vbnc *652:vinm 0.00876979
9 *5:9 *654:finetune 0
10 *5:9 *654:trimTC[5] 0
11 *5:9 *654:trimTC[2] 0
12 *5:9 *654:trimTC[0] 0
13 *5:9 *150:15 0
14 *5:9 *265:23 0.00725433
15 *5:13 *240:21 0.00373122
16 *5:13 *650:10 0.000274753
17 *2:9 *5:9 0.0856671
18 *2:13 *5:13 0.013217
19 *4:37 *655:vbnc 9.45898e-06
*RES
1 analog_io[13] *5:5 2874.26 
2 *5:5 *5:7 8 
3 *5:7 *5:9 157.965 
4 *5:9 *5:11 8 
5 *5:11 *5:13 327.638 
6 *5:13 *655:vbnc 32.9595 
*END

*D_NET *6 0.393932
*CONN
*P analog_io[14] I
*I *655:vbpci I *D CF_BUF_HIZ
*CAP
1 analog_io[14] 0.127367
2 *655:vbpci 0.000180091
3 *6:13 0.0232081
4 *6:11 0.023028
5 *6:9 0.0248117
6 *6:7 0.0248117
7 *6:5 0.127367
8 *6:9 *20:15 0
9 *6:9 *152:15 0
10 *6:9 *235:15 0.043159
11 *6:13 *7:21 0
12 *6:13 *10:19 0
13 *6:13 *183:15 0
14 *3:21 *6:9 0
15 *4:29 *6:13 0
*RES
1 analog_io[14] *6:5 2946.8 
2 *6:5 *6:7 8 
3 *6:7 *6:9 111.897 
4 *6:9 *6:11 8 
5 *6:11 *6:13 78.8545 
6 *6:13 *655:vbpci 16.6141 
*END

*D_NET *7 0.408688
*CONN
*P analog_io[15] I
*I *655:vbnci I *D CF_BUF_HIZ
*CAP
1 analog_io[15] 0.000864625
2 *655:vbnci 0
3 *7:21 0.013856
4 *7:19 0.013856
5 *7:17 0.0102046
6 *7:15 0.0102046
7 *7:13 0.114991
8 *7:11 0.115856
9 *7:13 *18:15 0.0569857
10 *7:17 *261:19 0.0265435
11 *7:21 *29:13 0.0118943
12 *7:21 *144:21 0.00564702
13 *7:21 *183:15 0.019683
14 *4:29 *7:21 0.00490667
15 *4:35 *7:21 0.000192629
16 *4:37 *7:21 0.00300203
17 *6:13 *7:21 0
*RES
1 analog_io[15] *7:11 21.0923 
2 *7:11 *7:13 2929.27 
3 *7:13 *7:15 8 
4 *7:15 *7:17 50.5885 
5 *7:17 *7:19 8 
6 *7:19 *7:21 85.6501 
7 *7:21 *655:vbnci 16 
*END

*D_NET *8 0.37368
*CONN
*P analog_io[16] I
*I *655:vbpcis I *D CF_BUF_HIZ
*CAP
1 analog_io[16] 0.00109714
2 *655:vbpcis 0.0020259
3 *8:13 0.167539
4 *8:11 0.16661
5 *655:vbpcis *655:vbpt 1.491e-05
6 *655:vbpcis *144:21 0
7 *8:13 *246:15 0.0362493
8 *8:13 *248:27 0.00014437
9 *8:13 *266:27 0
*RES
1 analog_io[16] *8:11 30.48 
2 *8:11 *8:13 600.831 
3 *8:13 *655:vbpcis 25.3661 
*END

*D_NET *9 0.332094
*CONN
*P analog_io[17] I
*I *655:vbncis I *D CF_BUF_HIZ
*CAP
1 analog_io[17] 0.000144273
2 *655:vbncis 0.000111155
3 *9:23 0.0105917
4 *9:19 0.0362337
5 *9:17 0.0328713
6 *9:11 0.129558
7 *9:9 0.122584
*RES
1 analog_io[17] *9:9 8.50773 
2 *9:9 *9:11 2841.23 
3 *9:11 *9:17 39.7123 
4 *9:17 *9:19 89.6709 
5 *9:19 *9:23 44.1629 
6 *9:23 *655:vbncis 10.3614 
*END

*D_NET *10 0.330202
*CONN
*P analog_io[18] I
*I *655:vbpcid I *D CF_BUF_HIZ
*CAP
1 analog_io[18] 0.00109674
2 *655:vbpcid 0.00167033
3 *10:19 0.0132833
4 *10:17 0.011613
5 *10:15 0.0177662
6 *10:13 0.0177662
7 *10:11 0.119822
8 *10:9 0.120919
9 *655:vbpcid *655:vbptd 0.00345072
10 *655:vbpcid *650:8 0.000320139
11 *10:19 *655:vbptd 0.00203743
12 *10:19 *11:21 0.0204571
13 *6:13 *10:19 0
*RES
1 analog_io[18] *10:9 11.3003 
2 *10:9 *10:11 2778.55 
3 *10:11 *10:13 8 
4 *10:13 *10:15 59.948 
5 *10:15 *10:17 8 
6 *10:17 *10:19 58.6544 
7 *10:19 *655:vbpcid 25.6476 
*END

*D_NET *11 0.306713
*CONN
*P analog_io[19] I
*I *655:vbptd I *D CF_BUF_HIZ
*CAP
1 analog_io[19] 0.00455157
2 *655:vbptd 0.00360517
3 *11:21 0.0128952
4 *11:17 0.00929
5 *11:15 0.014364
6 *11:13 0.014364
7 *11:11 0.108573
8 *11:9 0.113125
9 *11:15 *266:21 0
10 *11:15 *646:25 0
11 *655:vbpcid *655:vbptd 0.00345072
12 *10:19 *655:vbptd 0.00203743
13 *10:19 *11:21 0.0204571
*RES
1 analog_io[19] *11:9 22.7653 
2 *11:9 *11:11 2517.26 
3 *11:11 *11:13 8 
4 *11:13 *11:15 48.5277 
5 *11:15 *11:17 8 
6 *11:17 *11:21 48.4699 
7 *11:21 *655:vbptd 33.9611 
*END

*D_NET *12 0.58567
*CONN
*P analog_io[1] I
*I *655:vinp_p I *D CF_BUF_HIZ
*CAP
1 analog_io[1] 7.11147e-05
2 *655:vinp_p 0.000990968
3 *12:17 0.014772
4 *12:15 0.013781
5 *12:13 0.113513
6 *12:11 0.113513
7 *12:9 0.0267442
8 *12:7 0.0268154
9 *655:vinp_p *655:vinp_n 2.52013e-05
10 *655:vinp_p *655:vinn_n 0.000143544
11 *655:vinp_p *655:vinp_na 9.69234e-05
12 *655:vinp_p *22:25 0.000427883
13 *12:9 *22:9 0.0776434
14 *12:13 *654:trimCurr[5] 0
15 *12:13 *654:CurrAbsTrim[0] 0
16 *12:13 *654:inl_ctrl[0] 0
17 *12:13 *654:inl_ctrl[2] 0
18 *12:13 *22:13 0
19 *12:13 *150:15 0
20 *12:17 *25:21 0.0129629
21 *2:9 *12:13 0.184169
*RES
1 analog_io[1] *12:7 8.1568 
2 *12:7 *12:9 985.441 
3 *12:9 *12:11 8 
4 *12:11 *12:13 503.965 
5 *12:13 *12:15 8 
6 *12:15 *12:17 62.5072 
7 *12:17 *655:vinp_p 42.0569 
*END

*D_NET *13 0.438933
*CONN
*P analog_io[20] I
*I *652:vinm I *D CF_ADC_SAR12
*CAP
1 analog_io[20] 0.00518672
2 *652:vinm 0.029272
3 *13:17 0.029272
4 *13:15 0.145679
5 *13:13 0.150866
6 *652:vinm *652:vinp 2.3185e-05
7 *652:vinm *646:29 0.00935931
8 *652:vinm *646:39 0.0547661
9 *652:vinm *646:55 0.00573929
10 *655:vbnc *652:vinm 0.00876979
*RES
1 analog_io[20] *13:13 24.5928 
2 *13:13 *13:15 425.029 
3 *13:15 *13:17 8 
4 *13:17 *652:vinm 154.245 
*END

*D_NET *14 0.390088
*CONN
*P analog_io[21] I
*I *653:refout O *D CF_ADC_SAR12_sar_refs
*CAP
1 analog_io[21] 0.00210945
2 *653:refout 0.00735123
3 *14:17 0.0615096
4 *14:15 0.0594001
5 *14:13 0.124547
6 *14:11 0.131898
7 *14:11 *229:15 0
8 *14:13 *169:23 0.00327237
*RES
1 *653:refout *14:11 41.0759 
2 *14:11 *14:13 431.122 
3 *14:13 *14:15 8 
4 *14:15 *14:17 198.923 
5 *14:17 analog_io[21] 6.57627 
*END

*D_NET *15 0.314935
*CONN
*P analog_io[22] I
*I *652:vreflo I *D CF_ADC_SAR12
*CAP
1 analog_io[22] 0.00210945
2 *652:vreflo 0.00136281
3 *15:15 0.0979089
4 *15:13 0.0965461
5 *15:11 0.0504572
6 *15:9 0.0525666
7 *652:vreflo *646:55 5.57407e-05
8 *652:vreflo *646:63 0
9 *15:15 *155:21 0
10 *15:15 *166:19 0.0023569
11 *15:15 *176:23 0.00144301
12 *15:15 *179:15 0.00321482
13 *15:15 *180:15 0.00321482
14 *15:15 *283:17 0.00176047
15 *15:15 *322:25 0.00193824
*RES
1 analog_io[22] *15:9 6.57627 
2 *15:9 *15:11 168.87 
3 *15:11 *15:13 8 
4 *15:13 *15:15 326.655 
5 *15:15 *652:vreflo 12.6648 
*END

*D_NET *17 0.0852358
*CONN
*P analog_io[24] I
*I *654:dft_curr_in I *D CF_BGR
*CAP
1 analog_io[24] 0.00546821
2 *654:dft_curr_in 0.000381883
3 *17:15 0.0371452
4 *17:13 0.0422315
5 *654:dft_curr_in *646:15 9.0331e-06
*RES
1 analog_io[24] *17:13 25.5803 
2 *17:13 *17:15 852.331 
3 *17:15 *654:dft_curr_in 18.3841 
*END

*D_NET *18 0.287047
*CONN
*P analog_io[25] I
*I *652:vdda I *D CF_ADC_SAR12
*I *653:vdda I *D CF_ADC_SAR12_sar_refs
*CAP
1 analog_io[25] 0.00210945
2 *652:vdda 3.89923e-05
3 *653:vdda 0
4 *18:41 0.0120569
5 *18:39 0.0120569
6 *18:37 0.0156154
7 *18:35 0.0193368
8 *18:23 0.00848656
9 *18:21 0.00961802
10 *18:15 0.0247257
11 *18:13 0.0198339
12 *18:11 0.0314923
13 *18:9 0.0336017
14 *652:vdda *208:21 2.37336e-05
15 *18:21 *25:17 0
16 *18:21 *252:19 0.0151721
17 *18:35 *203:23 0
18 *18:37 *20:25 0
19 *18:37 *188:21 0
20 *18:41 *20:29 0.0258927
21 *7:13 *18:15 0.0569857
*RES
1 analog_io[25] *18:9 6.57627 
2 *18:9 *18:11 105.114 
3 *18:11 *18:13 8 
4 *18:13 *18:15 724.151 
5 *18:15 *18:21 43.748 
6 *18:21 *18:23 12.7493 
7 *18:23 *18:35 35.9877 
8 *18:35 *18:37 51.4043 
9 *18:37 *18:39 8 
10 *18:39 *18:41 62.2533 
11 *18:41 *653:vdda 8 
12 *18:23 *652:vdda 16.0989 
*END

*D_NET *19 0.315921
*CONN
*P analog_io[26] I
*I *653:vssa I *D CF_ADC_SAR12_sar_refs
*I *653:vssa_shield I *D CF_ADC_SAR12_sar_refs
*I *652:vssa I *D CF_ADC_SAR12
*CAP
1 analog_io[26] 0.00210945
2 *653:vssa 0.000164091
3 *653:vssa_shield 0.00613101
4 *652:vssa 0.00729106
5 *19:67 0.0221634
6 *19:65 0.0281303
7 *19:35 0.0245785
8 *19:33 0.0245785
9 *19:15 0.0587674
10 *19:13 0.0514764
11 *19:11 0.0302673
12 *19:9 0.0323768
13 *19:15 *26:9 0.0118738
14 *19:15 *647:15 0.000467835
15 *19:65 *653:VPUMP 0.00025221
16 *19:65 *653:S_LV[6] 0
17 *19:65 *156:25 0.00898107
18 *19:65 *160:17 0.00610626
19 *19:65 *161:19 0
20 *19:65 *162:21 0
21 *19:65 *648:15 0.000205309
22 *19:67 *649:13 0
*RES
1 analog_io[26] *19:9 6.57627 
2 *19:9 *19:11 101.035 
3 *19:11 *19:13 8 
4 *19:13 *19:15 174.209 
5 *19:15 *652:vssa 33.4968 
6 *19:15 *19:33 8 
7 *19:33 *19:35 82.4451 
8 *19:35 *653:vssa_shield 8 
9 *653:vssa_shield *19:65 47.9489 
10 *19:65 *19:67 76.4773 
11 *19:67 *653:vssa 0.673867 
*END

*D_NET *20 0.227201
*CONN
*P analog_io[27] I
*I *652:VPUMP I *D CF_ADC_SAR12
*I *653:VPUMP I *D CF_ADC_SAR12_sar_refs
*CAP
1 analog_io[27] 0.00240473
2 *652:VPUMP 3.89923e-05
3 *653:VPUMP 0.00251251
4 *20:29 0.0174771
5 *20:27 0.0149646
6 *20:25 0.0222572
7 *20:23 0.0259007
8 *20:19 0.00682497
9 *20:15 0.0297129
10 *20:13 0.0265704
11 *20:11 0.00882375
12 *20:9 0.0112285
13 *652:VPUMP *208:21 2.37336e-05
14 *653:VPUMP *169:23 2.31071e-05
15 *20:15 *261:19 0
16 *20:15 *268:19 0.03198
17 *20:23 *652:refclk 0
18 *20:23 *260:41 0.000312562
19 *6:9 *20:15 0
20 *18:37 *20:25 0
21 *18:41 *20:29 0.0258927
22 *19:65 *653:VPUMP 0.00025221
*RES
1 analog_io[27] *20:9 15.4181 
2 *20:9 *20:11 204.388 
3 *20:11 *20:13 8 
4 *20:13 *20:15 109.493 
5 *20:15 *20:19 16.6875 
6 *20:19 *20:23 20.1147 
7 *20:23 *20:25 74.9317 
8 *20:25 *20:27 8 
9 *20:27 *20:29 63.7317 
10 *20:29 *653:VPUMP 13.9864 
11 *20:19 *652:VPUMP 16.0989 
*END

*D_NET *22 0.557232
*CONN
*P analog_io[2] I
*I *655:vinn_p I *D CF_BUF_HIZ
*CAP
1 analog_io[2] 3.04535e-05
2 *655:vinn_p 8.04495e-05
3 *22:25 0.00438727
4 *22:17 0.0174486
5 *22:15 0.0131418
6 *22:13 0.142276
7 *22:11 0.142276
8 *22:9 0.0186959
9 *22:7 0.0187264
10 *655:vinn_p *655:vinn_na 4.2342e-05
11 *22:9 *25:13 0.0998897
12 *22:17 *253:15 0.011882
13 *22:17 *268:23 0.00432592
14 *22:25 *655:tp 0.00410919
15 *22:25 *655:vinp_na 0.00182773
16 *22:25 *655:vinn_na 2.04753e-05
17 *655:vinp_p *22:25 0.000427883
18 *3:25 *22:17 0
19 *12:9 *22:9 0.0776434
20 *12:13 *22:13 0
*RES
1 analog_io[2] *22:7 8.07093 
2 *22:7 *22:9 1267.86 
3 *22:9 *22:11 8 
4 *22:11 *22:13 487.049 
5 *22:13 *22:15 8 
6 *22:15 *22:17 61.7456 
7 *22:17 *22:25 38.5398 
8 *22:25 *655:vinn_p 16.8384 
*END

*D_NET *23 0.51474
*CONN
*P analog_io[3] I
*I *655:vinp_n I *D CF_BUF_HIZ
*CAP
1 analog_io[3] 0.13254
2 *655:vinp_n 9.58915e-05
3 *23:17 0.00565319
4 *23:15 0.0055573
5 *23:13 0.014036
6 *23:11 0.014036
7 *23:9 0.0682412
8 *23:7 0.0682412
9 *23:5 0.13254
10 *655:vinp_n *655:vinp_na 4.69392e-05
11 *655:vinp_n *655:vinn_na 4.12411e-05
12 *655:vinp_n *655:e_n_boost 0
13 *23:13 *25:17 0
14 *23:13 *252:19 0.0264673
15 *23:17 *24:17 0.0235781
16 *23:17 *26:17 0.0236412
17 *655:vinp_p *655:vinp_n 2.52013e-05
*RES
1 analog_io[3] *23:5 443.572 
2 *23:5 *23:7 8 
3 *23:7 *23:9 1577.04 
4 *23:9 *23:11 8 
5 *23:11 *23:13 63.2968 
6 *23:13 *23:15 8 
7 *23:15 *23:17 55.9067 
8 *23:17 *655:vinp_n 32.2938 
*END

*D_NET *24 0.530734
*CONN
*P analog_io[4] I
*I *655:vinn_n I *D CF_BUF_HIZ
*CAP
1 analog_io[4] 0.1313
2 *655:vinn_n 0.000142512
3 *24:17 0.0118118
4 *24:15 0.0116693
5 *24:13 0.0144537
6 *24:11 0.0144537
7 *24:9 0.0782348
8 *24:7 0.0782348
9 *24:5 0.1313
10 *655:vinn_n *655:clk2_boost 4.37026e-05
11 *655:vinn_n *655:vinp_na 4.62843e-05
12 *24:9 *651:15 0.00450236
13 *24:13 *258:19 0.0302483
14 *24:17 *26:17 0.000570595
15 *655:vinp_p *655:vinn_n 0.000143544
16 *23:17 *24:17 0.0235781
*RES
1 analog_io[4] *24:5 439.708 
2 *24:5 *24:7 8 
3 *24:7 *24:9 1831.99 
4 *24:9 *24:11 8 
5 *24:11 *24:13 66.9891 
6 *24:13 *24:15 8 
7 *24:15 *24:17 59.4608 
8 *24:17 *655:vinn_n 33.5018 
*END

*D_NET *25 0.666016
*CONN
*P analog_io[5] I
*I *655:vinp_na I *D CF_BUF_HIZ
*CAP
1 analog_io[5] 0.000802161
2 *655:vinp_na 0.000479963
3 *25:21 0.0126172
4 *25:19 0.0121372
5 *25:17 0.125453
6 *25:15 0.125453
7 *25:13 0.0704972
8 *25:11 0.0712994
9 *655:vinp_na *655:tp 0.00132893
10 *655:vinp_na *655:clk2_boost 9.41755e-06
11 *655:vinp_na *655:clk1_boostr 9.90709e-05
12 *655:vinp_na *655:vinn_na 2.92993e-05
13 *25:17 *26:13 0
14 *25:17 *29:9 0
15 *25:17 *149:15 0
16 *25:17 *234:15 0.130939
17 *25:17 *252:19 0
18 *655:vinp_n *655:vinp_na 4.69392e-05
19 *655:vinn_n *655:vinp_na 4.62843e-05
20 *655:vinp_p *655:vinp_na 9.69234e-05
21 *12:17 *25:21 0.0129629
22 *18:21 *25:17 0
23 *22:9 *25:13 0.0998897
24 *22:25 *655:vinp_na 0.00182773
25 *23:13 *25:17 0
*RES
1 analog_io[5] *25:11 25.8231 
2 *25:11 *25:13 2105.17 
3 *25:13 *25:15 8 
4 *25:15 *25:17 503.793 
5 *25:17 *25:19 8 
6 *25:19 *25:21 56.6683 
7 *25:21 *655:vinp_na 37.2433 
*END

*D_NET *26 0.574565
*CONN
*P analog_io[6] I
*I *655:vinn_na I *D CF_BUF_HIZ
*CAP
1 analog_io[6] 0.130433
2 *655:vinn_na 6.95952e-05
3 *26:17 0.0113785
4 *26:15 0.0113089
5 *26:13 0.0200316
6 *26:11 0.0200316
7 *26:9 0.102586
8 *26:7 0.102586
9 *26:5 0.130433
10 *26:9 *647:15 0.0030601
11 *26:13 *233:15 0.00642705
12 *26:13 *234:15 0
13 *26:13 *258:19 0
14 *655:vinp_n *655:vinn_na 4.12411e-05
15 *655:vinp_na *655:vinn_na 2.92993e-05
16 *655:vinn_p *655:vinn_na 4.2342e-05
17 *19:15 *26:9 0.0118738
18 *22:25 *655:vinn_na 2.04753e-05
19 *23:17 *26:17 0.0236412
20 *24:17 *26:17 0.000570595
21 *25:17 *26:13 0
*RES
1 analog_io[6] *26:5 437.132 
2 *26:5 *26:7 8 
3 *26:7 *26:9 2389.79 
4 *26:9 *26:11 8 
5 *26:11 *26:13 69.9085 
6 *26:13 *26:15 8 
7 *26:15 *26:17 58.1915 
8 *26:17 *655:vinn_na 32.2621 
*END

*D_NET *27 0.46187
*CONN
*P analog_io[7] I
*I *656:ch1 I *D CF_REFBUF
*I *656:ch2 I *D CF_REFBUF
*I *656:out O *D CF_REFBUF
*CAP
1 analog_io[7] 0.112771
2 *656:ch1 0.000541733
3 *656:ch2 0.00333197
4 *656:out 0.00398418
5 *27:39 0.112771
6 *27:37 0.104432
7 *27:35 0.104432
8 *27:33 0.00920566
9 *27:31 0.0103996
10 *656:ch2 *656:boost 0
11 *656:ch2 *150:23 0
*RES
1 *656:out *656:ch2 25.5013 
2 *656:ch2 *656:ch1 26.4446 
3 *656:out *27:31 42.3636 
4 *27:31 *27:33 206.439 
5 *27:33 *27:35 15 
6 *27:35 *27:37 2421.66 
7 *27:37 *27:39 8 
8 *27:39 analog_io[7] 377.884 
*END

*D_NET *28 0.490426
*CONN
*P analog_io[8] I
*I *656:vpwre I *D CF_REFBUF
*I *656:ng I *D CF_REFBUF
*CAP
1 analog_io[8] 0.108905
2 *656:vpwre 0.00319342
3 *656:ng 0.00646619
4 *28:13 0.0182201
5 *28:9 0.126648
6 *28:7 0.118088
7 *28:5 0.108905
*RES
1 analog_io[8] *28:5 2525.64 
2 *28:5 *28:7 8 
3 *28:7 *28:9 395.257 
4 *28:9 *28:13 37.5045 
5 *28:13 *656:ng 38.3683 
6 *28:13 *656:vpwre 27.6051 
*END

*D_NET *29 0.668367
*CONN
*P analog_io[9] I
*I *655:vbpt I *D CF_BUF_HIZ
*CAP
1 analog_io[9] 0.125893
2 *655:vbpt 4.10041e-05
3 *29:13 0.023509
4 *29:11 0.023468
5 *29:9 0.0903037
6 *29:7 0.0903037
7 *29:5 0.125893
8 *29:9 *252:19 0.177047
9 *655:vbpcis *655:vbpt 1.491e-05
10 *7:21 *29:13 0.0118943
11 *25:17 *29:9 0
*RES
1 analog_io[9] *29:5 2918.63 
2 *29:5 *29:7 8 
3 *29:7 *29:9 416.638 
4 *29:9 *29:11 8 
5 *29:11 *29:13 77.4723 
6 *29:13 *655:vbpt 16.0989 
*END

*D_NET *144 0.0908519
*CONN
*P la_data_in[0] I
*I *655:e_pd I *D CF_BUF_HIZ
*CAP
1 la_data_in[0] 6.5784e-05
2 *655:e_pd 0.000406998
3 *144:21 0.0149331
4 *144:19 0.0217028
5 *144:9 0.0234006
6 *144:7 0.0162897
7 *655:e_pd *655:en_pd 0.000209122
8 *144:9 *243:19 0
9 *144:9 *244:19 0
10 *144:19 *183:15 0
11 *144:21 *183:15 0.0037459
12 *655:vbpcis *144:21 0
13 *655:vbnt *144:21 3.31968e-05
14 *4:35 *655:e_pd 0.0005683
15 *4:37 *655:e_pd 1.13812e-05
16 *4:37 *144:21 0.003838
17 *7:21 *144:21 0.00564702
*RES
1 la_data_in[0] *144:7 9.50179 
2 *144:7 *144:9 54.8819 
3 *144:9 *144:19 47.3613 
4 *144:19 *144:21 364.613 
5 *144:21 *655:e_pd 28.3555 
*END

*D_NET *149 0.352147
*CONN
*P la_data_in[104] I
*I *656:pd I *D CF_REFBUF
*CAP
1 la_data_in[104] 0.00164624
2 *656:pd 4.84322e-05
3 *149:25 0.00469516
4 *149:15 0.0851674
5 *149:13 0.0805207
6 *149:11 0.0304815
7 *149:9 0.0321278
8 *149:15 *233:15 0.117459
9 *149:15 *234:15 0
10 *149:15 *258:19 0
11 *149:25 *152:19 0
12 *25:17 *149:15 0
*RES
1 la_data_in[104] *149:9 36.9439 
2 *149:9 *149:11 703.561 
3 *149:11 *149:13 8 
4 *149:13 *149:15 345.798 
5 *149:15 *149:25 38.6776 
6 *149:25 *656:pd 16.0254 
*END

*D_NET *150 0.320346
*CONN
*P la_data_in[105] I
*I *656:switchon I *D CF_REFBUF
*CAP
1 la_data_in[105] 4.49146e-05
2 *656:switchon 0
3 *150:23 0.00951491
4 *150:15 0.110986
5 *150:13 0.101471
6 *150:11 0.0298284
7 *150:9 0.0298765
8 *150:7 0.00384898
9 *150:5 0.0038458
10 *150:15 *237:15 0
11 *150:15 *239:19 0
12 *150:15 *265:23 0.0309287
13 *150:23 *151:19 0
14 *656:ch2 *150:23 0
15 *2:9 *150:15 0
16 *5:9 *150:15 0
17 *12:13 *150:15 0
*RES
1 la_data_in[105] *150:5 1.02536 
2 *150:5 *150:7 84.8457 
3 *150:7 *150:9 1.09786 
4 *150:9 *150:11 689.454 
5 *150:11 *150:13 8 
6 *150:13 *150:15 339.616 
7 *150:15 *150:23 47.7203 
8 *150:23 *656:switchon 8 
*END

*D_NET *151 0.388162
*CONN
*P la_data_in[106] I
*I *656:boost I *D CF_REFBUF
*CAP
1 la_data_in[106] 0.00164624
2 *656:boost 5.51803e-05
3 *151:19 0.0126029
4 *151:15 0.0852977
5 *151:13 0.07275
6 *151:11 0.0308209
7 *151:9 0.0324671
8 *151:15 *258:19 0.152522
9 *656:ch2 *656:boost 0
10 *150:23 *151:19 0
*RES
1 la_data_in[106] *151:9 36.9439 
2 *151:9 *151:11 711.308 
3 *151:11 *151:13 8 
4 *151:13 *151:15 341.934 
5 *151:15 *151:19 44.6128 
6 *151:19 *656:boost 16.1195 
*END

*D_NET *152 0.354421
*CONN
*P la_data_in[107] I
*I *656:ch_cont I *D CF_REFBUF
*CAP
1 la_data_in[107] 0.00160405
2 *656:ch_cont 0.000787438
3 *152:19 0.0123429
4 *152:15 0.0990633
5 *152:13 0.0875078
6 *152:11 0.0289221
7 *152:9 0.0305262
8 *152:15 *261:19 0
9 *152:15 *268:19 0.0936674
10 *6:9 *152:15 0
11 *149:25 *152:19 0
*RES
1 la_data_in[107] *152:9 36.2396 
2 *152:9 *152:11 668.346 
3 *152:11 *152:13 8 
4 *152:13 *152:15 354.041 
5 *152:15 *152:19 45.7552 
6 *152:19 *656:ch_cont 34.8496 
*END

*D_NET *153 0.259144
*CONN
*P la_data_in[108] I
*I *653:sw_start I *D CF_ADC_SAR12_sar_refs
*CAP
1 la_data_in[108] 0.000480041
2 *653:sw_start 0.0227999
3 *153:22 0
4 *153:17 0.0263602
5 *153:11 0.0471848
6 *153:9 0.0441045
7 *153:11 *164:11 0
8 *153:11 *221:11 0.0139208
9 *153:11 *262:11 0.0804782
10 *153:17 *212:15 0.0119105
11 *153:17 *214:13 0.0119052
*RES
1 la_data_in[108] *153:9 18.8025 
2 *153:9 *153:11 204.719 
3 *153:11 *153:17 44.7429 
4 *153:17 *653:sw_start 78.624 
5 *653:sw_start *153:22 0.0763636 
*END

*D_NET *154 0.268005
*CONN
*P la_data_in[109] I
*I *653:pd_vcmbuf I *D CF_ADC_SAR12_sar_refs
*CAP
1 la_data_in[109] 0.00120452
2 *653:pd_vcmbuf 0.000142671
3 *154:25 0.120401
4 *154:17 0.132556
5 *154:13 0.0135025
6 *653:pd_vcmbuf *653:PD_BUF_VREF 4.20966e-05
7 *154:13 *157:11 9.83828e-05
8 *154:13 *158:11 0
9 *154:25 *653:PWR_CTRL_VREF[0] 0
10 *154:25 *653:enable_hv 5.10636e-05
11 *154:25 *168:27 6.4e-06
*RES
1 la_data_in[109] *154:13 42.0052 
2 *154:13 *154:17 42.3273 
3 *154:17 *154:25 43.7732 
4 *154:25 *653:pd_vcmbuf 25.9207 
*END

*D_NET *155 0.160366
*CONN
*P la_data_in[10] I
*I *652:reset_n I *D CF_ADC_SAR12
*CAP
1 la_data_in[10] 0.00306877
2 *652:reset_n 0.00368682
3 *155:21 0.0407325
4 *155:19 0.0401144
5 *652:reset_n *652:test_sea 0.000338032
6 *652:reset_n *652:iso_en 0.000863385
7 *652:reset_n *199:17 4.53843e-05
8 *652:reset_n *208:21 0.000120325
9 *652:reset_n *303:15 8.56184e-06
10 *652:reset_n *333:23 0
11 *155:19 la_data_out[11] 5.10545e-05
12 *155:19 *175:13 0.00899639
13 *155:19 *198:11 0.00988119
14 *155:19 *198:17 0.00140377
15 *155:19 *201:11 3.33565e-06
16 *155:19 *355:25 0.00117326
17 *155:21 *175:15 0.00865012
18 *155:21 *177:19 0.00600393
19 *155:21 *178:23 0.00381433
20 *155:21 *272:29 0.00865012
21 *155:21 *303:17 0.015671
22 *155:21 *333:25 0.00708927
23 *15:15 *155:21 0
*RES
1 la_data_in[10] *155:19 41.6531 
2 *155:19 *155:21 116.2 
3 *155:21 *652:reset_n 22.0388 
*END

*D_NET *156 0.268795
*CONN
*P la_data_in[110] I
*I *653:S_LV[0] I *D CF_ADC_SAR12_sar_refs
*CAP
1 la_data_in[110] 0.00323957
2 *653:S_LV[0] 0.000594313
3 *156:25 0.0213019
4 *156:23 0.0286475
5 *156:19 0.0133776
6 *156:13 0.0567928
7 *156:11 0.0545946
8 *653:S_LV[0] *653:S_LV[3] 0.000181684
9 *156:11 *528:9 0.000122056
10 *156:13 *231:13 0.0167116
11 *156:13 *236:13 0
12 *156:13 *240:15 0.000533465
13 *156:13 *241:11 0.00284568
14 *156:13 *242:11 0.00284058
15 *156:13 *243:11 0.00489399
16 *156:13 *244:11 0.00330795
17 *156:13 *252:13 0
18 *156:13 *258:13 0
19 *156:13 *259:13 0
20 *156:13 *261:13 0.000113183
21 *156:13 *268:11 0.0212272
22 *156:19 *214:11 0.0019503
23 *156:19 *215:11 0.0010185
24 *156:19 *217:11 0.000609005
25 *156:19 *218:13 0.00117469
26 *156:19 *231:13 0.00252748
27 *156:19 *241:11 0.000664159
28 *156:23 *215:13 0.0156664
29 *156:25 *161:19 0
30 *156:25 *169:23 0.00140249
31 *156:25 *648:15 0.00347518
32 *19:65 *156:25 0.00898107
*RES
1 la_data_in[110] *156:11 20.0489 
2 *156:11 *156:13 176.512 
3 *156:13 *156:19 30.736 
4 *156:19 *156:23 45.5013 
5 *156:23 *156:25 80.7277 
6 *156:25 *653:S_LV[0] 20.4027 
*END

*D_NET *157 0.201837
*CONN
*P la_data_in[111] I
*I *653:S_LV[1] I *D CF_ADC_SAR12_sar_refs
*CAP
1 la_data_in[111] 0.00109297
2 *653:S_LV[1] 0.000477543
3 *157:15 0.012212
4 *157:11 0.0986585
5 *157:9 0.088017
6 *653:S_LV[1] *653:S_LV[2] 0.00113064
7 *157:11 *158:11 0
8 *157:11 *188:13 9.83919e-05
9 *157:11 *248:11 0
10 *157:11 *253:11 0
11 *157:11 *265:13 5.10545e-05
12 *157:11 *266:11 0
13 *154:13 *157:11 9.83828e-05
*RES
1 la_data_in[111] *157:9 32.8882 
2 *157:9 *157:11 291.101 
3 *157:11 *157:15 43.3435 
4 *157:15 *653:S_LV[1] 10.3791 
*END

*D_NET *158 0.225858
*CONN
*P la_data_in[112] I
*I *653:S_LV[2] I *D CF_ADC_SAR12_sar_refs
*CAP
1 la_data_in[112] 0.00141146
2 *653:S_LV[2] 0.00974821
3 *158:17 0.0201273
4 *158:11 0.0791544
5 *158:9 0.0701867
6 *653:S_LV[2] *653:S_LV[4] 0.00435596
7 *653:S_LV[2] *163:19 0.00608527
8 *158:11 *169:11 0
9 *158:11 *223:11 0.0336579
10 *653:S_LV[1] *653:S_LV[2] 0.00113064
11 *154:13 *158:11 0
12 *157:11 *158:11 0
*RES
1 la_data_in[112] *158:9 40.1589 
2 *158:9 *158:11 249.627 
3 *158:11 *158:17 49.9472 
4 *158:17 *653:S_LV[2] 47.5449 
*END

*D_NET *159 0.238436
*CONN
*P la_data_in[113] I
*I *653:S_LV[3] I *D CF_ADC_SAR12_sar_refs
*CAP
1 la_data_in[113] 0.00159916
2 *653:S_LV[3] 0.000137985
3 *159:23 0.00414982
4 *159:15 0.0851235
5 *159:13 0.0811117
6 *159:11 0.00238928
7 *159:9 0.00398843
8 *159:15 *167:11 0
9 *159:15 *168:15 0
10 *159:15 *204:11 0
11 *159:15 *222:15 0.0419946
12 *159:23 *653:S_LV[7] 0.0021935
13 *159:23 *653:S_LV[5] 2.1648e-05
14 *159:23 *161:19 0.00261749
15 *159:23 *163:19 0.000215296
16 *159:23 *169:23 0.000401881
17 *159:23 *188:15 0.00530033
18 *159:23 *649:15 0.00700974
19 *653:S_LV[0] *653:S_LV[3] 0.000181684
*RES
1 la_data_in[113] *159:9 36.9439 
2 *159:9 *159:11 53.505 
3 *159:11 *159:13 8 
4 *159:13 *159:15 295.051 
5 *159:15 *159:23 43.9384 
6 *159:23 *653:S_LV[3] 11.4748 
*END

*D_NET *160 0.216029
*CONN
*P la_data_in[114] I
*I *653:S_LV[4] I *D CF_ADC_SAR12_sar_refs
*CAP
1 la_data_in[114] 0.00199182
2 *653:S_LV[4] 0.0019511
3 *160:17 0.00982237
4 *160:11 0.0944946
5 *160:9 0.0866234
6 *160:7 0.00199182
7 *653:S_LV[4] *653:S_LV[7] 0.00138117
8 *653:S_LV[4] *163:19 0.00675715
9 *160:11 *169:11 0
10 *160:11 *230:11 0
11 *160:11 *528:17 0
12 *160:17 *648:19 0.000553197
13 *653:S_LV[2] *653:S_LV[4] 0.00435596
14 *19:65 *160:17 0.00610626
*RES
1 la_data_in[114] *160:7 45.5404 
2 *160:7 *160:9 8 
3 *160:9 *160:11 286.636 
4 *160:11 *160:17 47.1547 
5 *160:17 *653:S_LV[4] 16.8047 
*END

*D_NET *161 0.21719
*CONN
*P la_data_in[115] I
*I *653:S_LV[5] I *D CF_ADC_SAR12_sar_refs
*CAP
1 la_data_in[115] 4.49146e-05
2 *653:S_LV[5] 5.26362e-05
3 *161:19 0.012372
4 *161:17 0.0173227
5 *161:11 0.0776691
6 *161:9 0.0726657
7 *161:7 0.00325094
8 *161:5 0.00329586
9 *653:S_LV[5] *653:S_LV[7] 4.88179e-05
10 *653:S_LV[5] *653:S_LV[6] 0.000213259
11 *161:11 *167:11 0
12 *161:11 *224:11 0
13 *161:17 *208:17 0.0107631
14 *161:19 *653:S_LV[6] 5.83198e-05
15 *161:19 *162:21 0.00383436
16 *161:19 *163:19 0.0112156
17 *161:19 *169:23 0.00174364
18 *161:19 *648:15 0
19 *19:65 *161:19 0
20 *156:25 *161:19 0
21 *159:23 *653:S_LV[5] 2.1648e-05
22 *159:23 *161:19 0.00261749
*RES
1 la_data_in[115] *161:5 1.02536 
2 *161:5 *161:7 74.095 
3 *161:7 *161:9 8 
4 *161:9 *161:11 244.819 
5 *161:11 *161:17 41.4427 
6 *161:17 *161:19 61.5365 
7 *161:19 *653:S_LV[5] 0.4452 
*END

*D_NET *162 0.239876
*CONN
*P la_data_in[116] I
*I *653:S_LV[6] I *D CF_ADC_SAR12_sar_refs
*CAP
1 la_data_in[116] 4.49146e-05
2 *653:S_LV[6] 9.44315e-05
3 *162:21 0.00945399
4 *162:11 0.0919762
5 *162:9 0.0826166
6 *162:7 0.00291053
7 *162:5 0.00295544
8 *162:11 *165:11 0
9 *162:11 *224:11 0.0450625
10 *162:11 *225:11 0
11 *162:21 *169:23 0.000655744
12 *653:S_LV[5] *653:S_LV[6] 0.000213259
13 *19:65 *653:S_LV[6] 0
14 *19:65 *162:21 0
15 *161:19 *653:S_LV[6] 5.83198e-05
16 *161:19 *162:21 0.00383436
*RES
1 la_data_in[116] *162:5 1.02536 
2 *162:5 *162:7 66.3479 
3 *162:7 *162:9 8 
4 *162:9 *162:11 302.35 
5 *162:11 *162:21 49.8735 
6 *162:21 *653:S_LV[6] 0.5432 
*END

*D_NET *163 0.295648
*CONN
*P la_data_in[117] I
*I *653:S_LV[7] I *D CF_ADC_SAR12_sar_refs
*CAP
1 la_data_in[117] 4.49146e-05
2 *653:S_LV[7] 0.00057328
3 *163:19 0.00991858
4 *163:17 0.0162512
5 *163:11 0.059432
6 *163:9 0.0525261
7 *163:7 0.0023154
8 *163:5 0.00236031
9 *653:S_LV[7] *169:23 0.000385319
10 *163:11 *165:11 0
11 *163:11 *225:11 0
12 *163:11 *528:17 0.118243
13 *163:17 *209:13 0.00467436
14 *163:19 *169:23 0.00102659
15 *653:S_LV[5] *653:S_LV[7] 4.88179e-05
16 *653:S_LV[4] *653:S_LV[7] 0.00138117
17 *653:S_LV[4] *163:19 0.00675715
18 *653:S_LV[2] *163:19 0.00608527
19 *159:23 *653:S_LV[7] 0.0021935
20 *159:23 *163:19 0.000215296
21 *161:19 *163:19 0.0112156
*RES
1 la_data_in[117] *163:5 1.02536 
2 *163:5 *163:7 52.9664 
3 *163:7 *163:9 8 
4 *163:9 *163:11 249.026 
5 *163:11 *163:17 45.6315 
6 *163:17 *163:19 59.9051 
7 *163:19 *653:S_LV[7] 4.6508 
*END

*D_NET *164 0.264673
*CONN
*P la_data_in[118] I
*I *653:refout_en I *D CF_ADC_SAR12_sar_refs
*CAP
1 la_data_in[118] 0.000721704
2 *653:refout_en 0.0141551
3 *164:22 7.07043e-06
4 *164:17 0.0226901
5 *164:11 0.0711148
6 *164:9 0.0632944
7 *653:refout_en *165:19 0
8 *164:11 *221:11 0
9 *164:11 *257:11 0.0858833
10 *164:11 *266:11 0.00680636
11 *153:11 *164:11 0
*RES
1 la_data_in[118] *164:9 24.4368 
2 *164:9 *164:11 266.543 
3 *164:11 *164:17 41.8235 
4 *164:17 *653:refout_en 50.0304 
5 *653:refout_en *164:22 0.0861538 
*END

*D_NET *165 0.244037
*CONN
*P la_data_in[119] I
*I *653:sw_holdb I *D CF_ADC_SAR12_sar_refs
*CAP
1 la_data_in[119] 4.49146e-05
2 *653:sw_holdb 2.09756e-05
3 *165:19 0.0172619
4 *165:17 0.0208511
5 *165:11 0.0704748
6 *165:9 0.0668646
7 *165:7 0.00256456
8 *165:5 0.00260948
9 *165:11 *225:11 0.0185863
10 *165:17 *217:13 0.00700164
11 *165:19 *653:enpdb_hv 0.000230757
12 *165:19 *167:19 0.0375261
13 *165:19 *228:15 0
14 *653:refout_en *165:19 0
15 *162:11 *165:11 0
16 *163:11 *165:11 0
*RES
1 la_data_in[119] *165:5 1.02536 
2 *165:5 *165:7 59.305 
3 *165:7 *165:9 8 
4 *165:9 *165:11 236.576 
5 *165:11 *165:17 32.8112 
6 *165:17 *165:19 83.6901 
7 *165:19 *653:sw_holdb 0.0830667 
*END

*D_NET *166 0.148133
*CONN
*P la_data_in[11] I
*I *652:sof I *D CF_ADC_SAR12
*CAP
1 la_data_in[11] 0.00172174
2 *652:sof 0.00123867
3 *166:19 0.00780827
4 *166:17 0.0100887
5 *166:11 0.0063885
6 *166:9 0.00459115
7 *652:sof *652:test_scanen 0.000571983
8 *652:sof *652:hiz 0.00440184
9 *652:sof *652:test_sea 3.05993e-05
10 *652:sof *180:19 0.000615932
11 *652:sof *191:19 0.000222096
12 *652:sof *191:31 0.000264041
13 *652:sof *192:19 0.000190845
14 *652:sof *195:19 0.000711099
15 *652:sof *208:21 0.000470738
16 *652:sof *283:15 2.17681e-05
17 *652:sof *322:23 0.00292506
18 *652:sof *333:23 2.047e-05
19 *652:sof *377:11 0.000226398
20 *166:17 *177:17 0.00570535
21 *166:17 *322:29 0.000180664
22 *166:17 *333:29 0.00128058
23 *166:17 *366:19 0.0080519
24 *166:19 *176:23 8.49387e-06
25 *166:19 *179:15 0.043969
26 *166:19 *180:15 3.73755e-05
27 *166:19 *322:25 0.0440324
28 *15:15 *166:19 0.0023569
*RES
1 la_data_in[11] *166:9 36.2396 
2 *166:9 *166:11 63.365 
3 *166:11 *166:17 37.5227 
4 *166:17 *166:19 560.756 
5 *166:19 *652:sof 28.1277 
*END

*D_NET *167 0.234008
*CONN
*P la_data_in[120] I
*I *653:enpdb_hv I *D CF_ADC_SAR12_sar_refs
*CAP
1 la_data_in[120] 4.49146e-05
2 *653:enpdb_hv 0.000143636
3 *167:19 0.0141814
4 *167:17 0.0167264
5 *167:11 0.077732
6 *167:9 0.0750434
7 *167:7 0.00350379
8 *167:5 0.0035487
9 *653:enpdb_hv *228:15 0
10 *167:17 *210:13 0.00532698
11 *167:19 *228:15 0
12 *159:15 *167:11 0
13 *161:11 *167:11 0
14 *165:19 *653:enpdb_hv 0.000230757
15 *165:19 *167:19 0.0375261
*RES
1 la_data_in[120] *167:5 1.02536 
2 *167:5 *167:7 81.1379 
3 *167:7 *167:9 8 
4 *167:9 *167:11 251.259 
5 *167:11 *167:17 28.7493 
6 *167:17 *167:19 71.3253 
7 *167:19 *653:enpdb_hv 0.734533 
*END

*D_NET *168 0.270381
*CONN
*P la_data_in[121] I
*I *653:PD_BUF_VREF I *D CF_ADC_SAR12_sar_refs
*CAP
1 la_data_in[121] 0.0015861
2 *653:PD_BUF_VREF 5.19959e-05
3 *168:27 0.00516674
4 *168:15 0.0913518
5 *168:13 0.086237
6 *168:11 0.00261601
7 *168:9 0.0042021
8 *653:PD_BUF_VREF *653:PWR_CTRL_VREF[1] 8.7178e-05
9 *168:15 *222:15 0
10 *168:15 *226:15 0.0651174
11 *168:27 *653:muxsarref[2] 0.0020458
12 *168:27 *653:PWR_CTRL_VREF[0] 1.68715e-05
13 *168:27 *653:enable_hv 7.49827e-06
14 *168:27 *225:15 4.82927e-05
15 *168:27 *226:23 0.0117975
16 *653:pd_vcmbuf *653:PD_BUF_VREF 4.20966e-05
17 *154:25 *168:27 6.4e-06
18 *159:15 *168:15 0
*RES
1 la_data_in[121] *168:9 36.9439 
2 *168:9 *168:11 60.5479 
3 *168:11 *168:13 8 
4 *168:13 *168:15 329.054 
5 *168:15 *168:27 45.2189 
6 *168:27 *653:PD_BUF_VREF 24.3775 
*END

*D_NET *169 0.269118
*CONN
*P la_data_in[122] I
*I *653:dft_comp_en I *D CF_ADC_SAR12_sar_refs
*CAP
1 la_data_in[122] 0.00167978
2 *653:dft_comp_en 0
3 *169:23 0.0145286
4 *169:11 0.0968768
5 *169:9 0.084028
6 *169:11 *223:11 0
7 *169:11 *230:11 0.063094
8 *653:VPUMP *169:23 2.31071e-05
9 *653:S_LV[7] *169:23 0.000385319
10 *14:13 *169:23 0.00327237
11 *156:25 *169:23 0.00140249
12 *158:11 *169:11 0
13 *159:23 *169:23 0.000401881
14 *160:11 *169:11 0
15 *161:19 *169:23 0.00174364
16 *162:21 *169:23 0.000655744
17 *163:19 *169:23 0.00102659
*RES
1 la_data_in[122] *169:9 46.9739 
2 *169:9 *169:11 315.487 
3 *169:11 *169:23 43.6498 
4 *169:23 *653:dft_comp_en 8 
*END

*D_NET *175 0.147487
*CONN
*P la_data_in[12] I
*I *652:next I *D CF_ADC_SAR12
*CAP
1 la_data_in[12] 0.00167599
2 *652:next 4.81293e-05
3 *175:19 0.000763727
4 *175:15 0.00973356
5 *175:13 0.0106939
6 *652:next *652:iso_en 3.55744e-05
7 *652:next *294:15 4.33741e-06
8 *175:13 la_data_out[12] 0.00845626
9 *175:13 *201:11 1.31391e-05
10 *175:13 *355:25 0.000258242
11 *175:15 *178:23 0
12 *175:15 *180:11 0.00175317
13 *175:15 *272:29 0.0439609
14 *175:15 *303:17 0.0510993
15 *175:19 *179:19 0.000742411
16 *175:19 *208:21 0.000601598
17 *155:19 *175:13 0.00899639
18 *155:21 *175:15 0.00865012
*RES
1 la_data_in[12] *175:13 34.9793 
2 *175:13 *175:15 654.602 
3 *175:15 *175:19 35.3932 
4 *175:19 *652:next 15.9529 
*END

*D_NET *176 0.129362
*CONN
*P la_data_in[13] I
*I *653:hiz I *D CF_ADC_SAR12_sar_refs
*I *652:hiz I *D CF_ADC_SAR12
*CAP
1 la_data_in[13] 0.00185475
2 *653:hiz 0.00316014
3 *652:hiz 0.00119917
4 *176:23 0.0148604
5 *176:21 0.0136613
6 *176:19 0.00946627
7 *176:13 0.00816088
8 *652:hiz *652:sample_width[1] 6.92184e-05
9 *652:hiz *652:scan_test_mode 0.00149504
10 *652:hiz *652:test_scanen 0.000702034
11 *652:hiz *652:sel_csel_dft[0] 0
12 *652:hiz *191:31 0.00040255
13 *652:hiz *197:19 0.000425691
14 *652:hiz *200:25 0.00100152
15 *652:hiz *206:25 0.000481215
16 *652:hiz *208:21 9.81333e-06
17 *652:hiz *209:25 0.000881839
18 *652:hiz *283:15 1.36509e-05
19 *652:hiz *311:13 0.000424019
20 *652:hiz *322:23 2.17681e-05
21 *653:hiz *653:pd 8.24233e-05
22 *653:hiz *271:49 0.00609732
23 *176:13 *190:13 0.000596543
24 *176:13 *257:11 0.000597201
25 *176:13 *262:11 0.000212807
26 *176:19 *178:17 0.00579637
27 *176:19 *271:49 0.0016976
28 *176:19 *355:19 0.0115557
29 *176:23 *283:17 0.0385644
30 *176:23 *322:25 1.66113e-05
31 *652:sof *652:hiz 0.00440184
32 *15:15 *176:23 0.00144301
33 *166:19 *176:23 8.49387e-06
*RES
1 la_data_in[13] *176:13 36.1198 
2 *176:13 *176:19 44.7117 
3 *176:19 *176:21 8 
4 *176:21 *176:23 492.441 
5 *176:23 *652:hiz 29.8126 
6 *176:19 *653:hiz 25.0037 
*END

*D_NET *177 0.122473
*CONN
*P la_data_in[14] I
*I *652:iso_en I *D CF_ADC_SAR12
*CAP
1 la_data_in[14] 0.00177555
2 *652:iso_en 0.00210117
3 *177:19 0.0108458
4 *177:17 0.0107936
5 *177:11 0.00496052
6 *177:9 0.00468717
7 *652:iso_en *208:21 0.000415346
8 *652:iso_en *272:27 0.000427228
9 *652:iso_en *294:15 3.94779e-05
10 *652:iso_en *333:23 0
11 *652:iso_en *366:13 0
12 *177:19 *178:23 0.0308713
13 *177:19 *333:25 0.0429471
14 *652:reset_n *652:iso_en 0.000863385
15 *652:next *652:iso_en 3.55744e-05
16 *155:21 *177:19 0.00600393
17 *166:17 *177:17 0.00570535
*RES
1 la_data_in[14] *177:9 36.2396 
2 *177:9 *177:11 64.0693 
3 *177:11 *177:17 26.5317 
4 *177:17 *177:19 545.966 
5 *177:19 *652:iso_en 39.0115 
*END

*D_NET *178 0.159569
*CONN
*P la_data_in[15] I
*I *653:enable_hv I *D CF_ADC_SAR12_sar_refs
*I *652:enable_hv I *D CF_ADC_SAR12
*CAP
1 la_data_in[15] 0.00138779
2 *653:enable_hv 0.00502146
3 *652:enable_hv 0.000197502
4 *178:27 0.00669061
5 *178:25 0.00649311
6 *178:23 0.0116725
7 *178:21 0.0116725
8 *178:19 0.0072282
9 *178:17 0.0115065
10 *178:13 0.0106875
11 *652:enable_hv *652:trimunit 0.000539426
12 *652:enable_hv *652:cap_trim[0] 0.000173376
13 *653:enable_hv *653:PWR_CTRL_VREF[0] 0
14 *653:enable_hv *226:23 0
15 *178:13 *181:11 0
16 *178:13 *399:20 9.83828e-05
17 *178:17 *344:13 0
18 *178:17 *355:19 0.00249677
19 *178:23 *180:15 0
20 *178:23 *272:29 8.76702e-05
21 *178:23 *333:25 0.000218945
22 *178:27 *652:scan_test_mode 0.00514903
23 *178:27 *652:test_scanen 0.00109363
24 *178:27 *179:27 0.0123062
25 *178:27 *186:25 0.00124087
26 *178:27 *195:41 0.000411117
27 *178:27 *202:27 0.00170927
28 *178:27 *209:47 0.000142299
29 *178:27 *255:15 0
30 *178:27 *294:15 0.00817353
31 *178:27 *311:13 0.0126304
32 *154:25 *653:enable_hv 5.10636e-05
33 *155:21 *178:23 0.00381433
34 *168:27 *653:enable_hv 7.49827e-06
35 *175:15 *178:23 0
36 *176:19 *178:17 0.00579637
37 *177:19 *178:23 0.0308713
*RES
1 la_data_in[15] *178:13 42.0052 
2 *178:13 *178:17 49.0555 
3 *178:17 *178:19 7.22587 
4 *178:19 *178:21 8 
5 *178:21 *178:23 410.039 
6 *178:23 *178:25 8 
7 *178:25 *178:27 60.9355 
8 *178:27 *652:enable_hv 15.4209 
9 *178:19 *653:enable_hv 15.4672 
*END

*D_NET *179 0.19092
*CONN
*P la_data_in[16] I
*I *652:trimunit I *D CF_ADC_SAR12
*CAP
1 la_data_in[16] 0.00157896
2 *652:trimunit 0.000326949
3 *179:27 0.00513573
4 *179:25 0.00520251
5 *179:19 0.0016165
6 *179:17 0.00122278
7 *179:15 0.00951522
8 *179:13 0.00951522
9 *179:11 0.00157896
10 *652:trimunit *652:dft_inc[3] 0
11 *179:11 *201:11 0.000867487
12 *179:15 *180:15 0.0497464
13 *179:15 *322:25 7.91187e-05
14 *179:19 *202:19 0.00472538
15 *179:19 *208:21 0.000650615
16 *179:19 *272:13 3.04931e-05
17 *179:19 *322:17 0.000957762
18 *179:25 *652:test_scanin 0
19 *179:25 *652:sample_width[2] 1.05658e-05
20 *179:25 *186:25 0.000113389
21 *179:25 *195:41 4.76373e-05
22 *179:27 *195:41 0.000304841
23 *179:27 *209:47 0.00272254
24 *179:27 *210:17 4.89323e-05
25 *179:27 *214:17 0.0282479
26 *179:27 *255:15 3.99169e-05
27 *179:27 *294:15 0.00586284
28 *652:enable_hv *652:trimunit 0.000539426
29 *15:15 *179:15 0.00321482
30 *166:19 *179:15 0.043969
31 *175:19 *179:19 0.000742411
32 *178:27 *179:27 0.0123062
*RES
1 la_data_in[16] *179:11 45.8643 
2 *179:11 *179:13 15 
3 *179:13 *179:15 653.018 
4 *179:15 *179:17 15 
5 *179:17 *179:19 52.0757 
6 *179:19 *179:25 29.6596 
7 *179:25 *179:27 52.4347 
8 *179:27 *652:trimunit 16.8295 
*END

*D_NET *180 0.166266
*CONN
*P la_data_in[17] I
*I *652:dly_inc I *D CF_ADC_SAR12
*CAP
1 la_data_in[17] 0.00130721
2 *652:dly_inc 0.000146126
3 *180:27 0.00506619
4 *180:25 0.00496005
5 *180:19 0.00186692
6 *180:17 0.00182694
7 *180:15 0.017691
8 *180:13 0.017691
9 *180:11 0.00130721
10 *652:dly_inc *652:icont_lv[0] 0.000125762
11 *652:dly_inc *652:dcen 0
12 *180:19 *652:sample_width[0] 0
13 *180:19 *191:31 0.000494492
14 *180:19 *195:19 0.0046576
15 *180:19 *200:25 0.00770391
16 *180:19 *202:19 0.000403367
17 *180:19 *209:25 0.000405757
18 *180:25 *206:31 1.98028e-05
19 *180:27 *202:27 0.0132634
20 *180:27 *206:33 0.0260321
21 *180:27 *209:47 0.00592916
22 *652:sof *180:19 0.000615932
23 *15:15 *180:15 0.00321482
24 *166:19 *180:15 3.73755e-05
25 *175:15 *180:11 0.00175317
26 *178:23 *180:15 0
27 *179:15 *180:15 0.0497464
*RES
1 la_data_in[17] *180:11 47.5836 
2 *180:11 *180:13 15 
3 *180:13 *180:15 635.059 
4 *180:15 *180:17 15 
5 *180:17 *180:19 93.0486 
6 *180:19 *180:25 23.6732 
7 *180:25 *180:27 47.7979 
8 *180:27 *652:dly_inc 11.9979 
*END

*D_NET *181 0.11246
*CONN
*P la_data_in[18] I
*I *652:dcen I *D CF_ADC_SAR12
*CAP
1 la_data_in[18] 0.00162051
2 *652:dcen 9.93711e-05
3 *181:15 0.0303481
4 *181:13 0.0302488
5 *181:11 0.0183276
6 *181:9 0.0199481
7 *652:dcen *206:33 1.3331e-05
8 *181:11 *182:11 0
9 *181:11 *194:11 0.00667835
10 *181:15 *204:15 0
11 *181:15 *207:15 0.00517602
12 *652:dly_inc *652:dcen 0
13 *178:13 *181:11 0
*RES
1 la_data_in[18] *181:9 41.1118 
2 *181:9 *181:11 65.6152 
3 *181:11 *181:13 8 
4 *181:13 *181:15 112.519 
5 *181:15 *652:dcen 16.8925 
*END

*D_NET *182 0.143731
*CONN
*P la_data_in[19] I
*I *652:pumpclk I *D CF_ADC_SAR12
*CAP
1 la_data_in[19] 0.00189685
2 *652:pumpclk 0.000174598
3 *182:15 0.0218379
4 *182:13 0.0216633
5 *182:11 0.0247941
6 *182:9 0.0266909
7 *652:pumpclk *652:en_pump_lv 3.71733e-05
8 *182:9 *202:15 0
9 *182:11 *184:11 0
10 *182:11 *194:11 0
11 *182:15 *184:15 0.0466364
12 *181:11 *182:11 0
*RES
1 la_data_in[19] *182:9 47.2018 
2 *182:9 *182:11 82.4451 
3 *182:11 *182:13 8 
4 *182:13 *182:15 111.63 
5 *182:15 *652:pumpclk 18.9057 
*END

*D_NET *183 0.122213
*CONN
*P la_data_in[1] I
*I *655:en_pd I *D CF_BUF_HIZ
*CAP
1 la_data_in[1] 0.00079488
2 *655:en_pd 0.000222594
3 *183:15 0.0209378
4 *183:13 0.0207152
5 *183:11 0.0119437
6 *183:9 0.0127386
7 *183:11 *257:11 0.0312225
8 *183:11 *262:11 0
9 *655:e_pd *655:en_pd 0.000209122
10 *6:13 *183:15 0
11 *7:21 *183:15 0.019683
12 *144:19 *183:15 0
13 *144:21 *183:15 0.0037459
*RES
1 la_data_in[1] *183:9 24.9132 
2 *183:9 *183:11 59.4328 
3 *183:11 *183:13 8 
4 *183:13 *183:15 86.2437 
5 *183:15 *655:en_pd 34.2971 
*END

*D_NET *184 0.147564
*CONN
*P la_data_in[20] I
*I *652:en_pump_lv I *D CF_ADC_SAR12
*CAP
1 la_data_in[20] 0.00151365
2 *652:en_pump_lv 0.000163807
3 *184:15 0.0213821
4 *184:13 0.0212183
5 *184:11 0.0258566
6 *184:9 0.0258566
7 *184:7 0.00151365
8 *184:7 *195:15 0.00338559
9 *184:7 *197:15 0
10 *184:11 *528:17 0
11 *652:pumpclk *652:en_pump_lv 3.71733e-05
12 *182:11 *184:11 0
13 *182:15 *184:15 0.0466364
*RES
1 la_data_in[20] *184:7 46.0168 
2 *184:7 *184:9 8 
3 *184:9 *184:11 85.1928 
4 *184:11 *184:13 8 
5 *184:13 *184:15 110.107 
6 *184:15 *652:en_pump_lv 17.2723 
*END

*D_NET *185 0.0811996
*CONN
*P la_data_in[21] I
*I *652:scan_test_mode I *D CF_ADC_SAR12
*CAP
1 la_data_in[21] 0.00156811
2 *652:scan_test_mode 0.00419276
3 *185:11 0.0314875
4 *185:9 0.0288629
5 *652:scan_test_mode *652:test_scanin 0.000104211
6 *652:scan_test_mode *652:test_scanen 0.00182447
7 *652:scan_test_mode *186:25 0.00230184
8 *652:scan_test_mode *197:19 0.00073665
9 *652:scan_test_mode *206:25 0.000834589
10 *652:scan_test_mode *208:21 0
11 *652:scan_test_mode *214:17 9.29266e-05
12 *652:scan_test_mode *311:13 0.00171041
13 *185:9 *186:13 0
14 *185:9 *189:15 0.000839147
15 *185:11 *186:13 0
16 *185:11 *189:15 0
17 *652:hiz *652:scan_test_mode 0.00149504
18 *178:27 *652:scan_test_mode 0.00514903
*RES
1 la_data_in[21] *185:9 36.9439 
2 *185:9 *185:11 626.794 
3 *185:11 *652:scan_test_mode 44.4489 
*END

*D_NET *186 0.135248
*CONN
*P la_data_in[22] I
*I *652:test_scanin I *D CF_ADC_SAR12
*CAP
1 la_data_in[22] 0.000903087
2 *652:test_scanin 0.00026744
3 *186:25 0.00292399
4 *186:13 0.012791
5 *186:11 0.0110376
6 *652:test_scanin *652:test_scanen 4.31497e-05
7 *186:11 *198:11 0.00197943
8 *186:11 *242:11 0.000362867
9 *186:11 *243:11 0.00108443
10 *186:11 *244:11 0.000533942
11 *186:13 *187:15 0.00647626
12 *186:13 *189:15 0.02583
13 *186:13 *191:15 0.051574
14 *186:13 *192:15 1.16551e-05
15 *186:13 *193:15 5.52162e-06
16 *186:25 *652:test_scanen 0.00160471
17 *186:25 *191:31 0.000229089
18 *186:25 *195:41 4.96824e-05
19 *186:25 *214:17 0.0110472
20 *186:25 *294:15 0.00224835
21 *186:25 *311:13 0.000484076
22 *652:scan_test_mode *652:test_scanin 0.000104211
23 *652:scan_test_mode *186:25 0.00230184
24 *178:27 *186:25 0.00124087
25 *179:25 *652:test_scanin 0
26 *179:25 *186:25 0.000113389
27 *185:9 *186:13 0
28 *185:11 *186:13 0
*RES
1 la_data_in[22] *186:11 21.6406 
2 *186:11 *186:13 664.286 
3 *186:13 *186:25 48.9016 
4 *186:25 *652:test_scanin 13.5307 
*END

*D_NET *187 0.161762
*CONN
*P la_data_in[23] I
*I *652:test_scanen I *D CF_ADC_SAR12
*CAP
1 la_data_in[23] 0.00122175
2 *652:test_scanen 0.00975693
3 *187:15 0.0460414
4 *187:13 0.0375062
5 *652:test_scanen *652:sel_csel_dft[0] 1.09583e-05
6 *652:test_scanen *195:41 0.000243446
7 *652:test_scanen *199:17 1.35887e-05
8 *652:test_scanen *208:21 0.000454109
9 *652:test_scanen *210:17 0.00122726
10 *652:test_scanen *212:19 0.00135099
11 *652:test_scanen *214:17 0.00144176
12 *652:test_scanen *283:15 0.000377261
13 *652:test_scanen *294:15 0.000605071
14 *652:test_scanen *311:13 0.00021125
15 *652:test_scanen *322:23 0.000341828
16 *187:13 *189:13 0.00364328
17 *187:13 *196:11 0.000138191
18 *187:13 *201:11 0.00387713
19 *187:13 *202:11 0.000115009
20 *187:15 *189:15 0.00503105
21 *187:15 *191:15 0.00713021
22 *187:15 *192:15 0.00840025
23 *187:15 *193:15 0.020307
24 *652:scan_test_mode *652:test_scanen 0.00182447
25 *652:test_scanin *652:test_scanen 4.31497e-05
26 *652:hiz *652:test_scanen 0.000702034
27 *652:sof *652:test_scanen 0.000571983
28 *178:27 *652:test_scanen 0.00109363
29 *186:13 *187:15 0.00647626
30 *186:25 *652:test_scanen 0.00160471
*RES
1 la_data_in[23] *187:13 27.4619 
2 *187:13 *187:15 118.358 
3 *187:15 *652:test_scanen 24.0588 
*END

*D_NET *188 0.0953983
*CONN
*P la_data_in[24] I
*I *652:test_sea I *D CF_ADC_SAR12
*CAP
1 la_data_in[24] 0.00151793
2 *652:test_sea 0.00200484
3 *188:21 0.0115234
4 *188:15 0.0357787
5 *188:13 0.027778
6 *652:test_sea *652:sel_csel_dft[0] 0.000291808
7 *652:test_sea *652:sel_csel_dft[2] 0.00133843
8 *652:test_sea *652:sel_csel_dft[3] 0.00102015
9 *652:test_sea *199:17 3.58125e-05
10 *652:test_sea *208:21 0.000333843
11 *652:test_sea *333:23 0
12 *652:test_sea *355:19 0.0018829
13 *188:15 *649:15 0.00612513
14 *652:sof *652:test_sea 3.05993e-05
15 *652:reset_n *652:test_sea 0.000338032
16 *18:37 *188:21 0
17 *157:11 *188:13 9.83919e-05
18 *159:23 *188:15 0.00530033
*RES
1 la_data_in[24] *188:13 42.0052 
2 *188:13 *188:15 104.141 
3 *188:15 *188:21 46.4528 
4 *188:21 *652:test_sea 27.1368 
*END

*D_NET *189 0.110114
*CONN
*P la_data_in[25] I
*I *652:resolution[0] I *D CF_ADC_SAR12
*CAP
1 la_data_in[25] 0.00172184
2 *652:resolution[0] 0.000109662
3 *189:23 0.00630176
4 *189:15 0.0248099
5 *189:13 0.0203397
6 *652:resolution[0] *203:23 0
7 *189:13 *191:11 0.00150235
8 *189:13 *196:11 0.00729074
9 *189:13 *201:11 0.0019675
10 *189:23 *190:15 0.000354968
11 *189:23 *219:15 0.010372
12 *185:9 *189:15 0.000839147
13 *185:11 *189:15 0
14 *186:13 *189:15 0.02583
15 *187:13 *189:13 0.00364328
16 *187:15 *189:15 0.00503105
*RES
1 la_data_in[25] *189:13 32.5066 
2 *189:13 *189:15 629.776 
3 *189:15 *189:23 42.3965 
4 *189:23 *652:resolution[0] 16.3285 
*END

*D_NET *190 0.132894
*CONN
*P la_data_in[26] I
*I *652:resolution[1] I *D CF_ADC_SAR12
*CAP
1 la_data_in[26] 0.000726905
2 *652:resolution[1] 5.5224e-05
3 *190:15 0.0230976
4 *190:13 0.0309289
5 *190:9 0.00861337
6 *652:resolution[1] *203:23 0
7 *190:13 *257:11 0
8 *190:13 *262:11 0.0219926
9 *190:15 *201:15 0.046528
10 *176:13 *190:13 0.000596543
11 *189:23 *190:15 0.000354968
*RES
1 la_data_in[26] *190:9 19.0304 
2 *190:9 *190:13 48.7139 
3 *190:13 *190:15 114.423 
4 *190:15 *652:resolution[1] 16.1195 
*END

*D_NET *191 0.178711
*CONN
*P la_data_in[27] I
*I *652:sample_width[0] I *D CF_ADC_SAR12
*CAP
1 la_data_in[27] 0.000422361
2 *652:sample_width[0] 0.000167957
3 *191:31 0.00164097
4 *191:19 0.00286146
5 *191:17 0.00138845
6 *191:15 0.00766268
7 *191:13 0.00766268
8 *191:11 0.00336862
9 *191:9 0.00379098
10 *652:sample_width[0] *652:sample_width[1] 5.11193e-05
11 *652:sample_width[0] *202:19 1.94693e-05
12 *191:9 *202:11 0.000115009
13 *191:11 *192:11 0.010244
14 *191:15 *192:15 0.0515486
15 *191:19 *192:19 0.0095432
16 *191:19 *195:19 0.00819559
17 *191:19 *200:25 0.000538364
18 *191:19 *208:21 0.000571166
19 *191:19 *322:23 0.000416411
20 *191:31 *652:sample_width[1] 0.000208387
21 *191:31 *652:sample_width[5] 0
22 *191:31 *652:sample_width[2] 0.004039
23 *191:31 *195:41 5.31675e-05
24 *191:31 *200:25 0.000436588
25 *191:31 *202:25 0.000105035
26 *191:31 *208:21 5.43736e-05
27 *191:31 *209:25 0.000433645
28 *191:31 *311:13 0.00135278
29 *652:hiz *191:31 0.00040255
30 *652:sof *191:19 0.000222096
31 *652:sof *191:31 0.000264041
32 *180:19 *652:sample_width[0] 0
33 *180:19 *191:31 0.000494492
34 *186:13 *191:15 0.051574
35 *186:25 *191:31 0.000229089
36 *187:15 *191:15 0.00713021
37 *189:13 *191:11 0.00150235
*RES
1 la_data_in[27] *191:9 18.7079 
2 *191:9 *191:11 112.106 
3 *191:11 *191:13 15 
4 *191:13 *191:15 656.187 
5 *191:15 *191:17 15 
6 *191:17 *191:19 104.959 
7 *191:19 *191:31 42.3977 
8 *191:31 *652:sample_width[0] 33.2729 
*END

*D_NET *192 0.191012
*CONN
*P la_data_in[28] I
*I *652:sample_width[1] I *D CF_ADC_SAR12
*CAP
1 la_data_in[28] 0.000276748
2 *652:sample_width[1] 0.00107357
3 *192:19 0.00248348
4 *192:17 0.00140991
5 *192:15 0.00766449
6 *192:13 0.00766449
7 *192:11 0.00193364
8 *192:9 0.00221038
9 *652:sample_width[1] *652:sample_width[2] 0.00395615
10 *652:sample_width[1] *195:41 0.00047579
11 *652:sample_width[1] *202:19 0.000570895
12 *652:sample_width[1] *202:27 1.31574e-05
13 *652:sample_width[1] *206:33 2.81221e-05
14 *652:sample_width[1] *208:21 0.00434117
15 *652:sample_width[1] *311:13 2.67626e-06
16 *192:11 *193:11 0.0120769
17 *192:11 *196:11 0.00229025
18 *192:15 *193:15 0.0515487
19 *192:19 *193:19 0.00988313
20 *192:19 *195:19 0.000210959
21 *192:19 *208:21 0.000149552
22 *192:19 *322:23 0.00048075
23 *652:hiz *652:sample_width[1] 6.92184e-05
24 *652:sof *192:19 0.000190845
25 *652:sample_width[0] *652:sample_width[1] 5.11193e-05
26 *186:13 *192:15 1.16551e-05
27 *187:15 *192:15 0.00840025
28 *191:11 *192:11 0.010244
29 *191:15 *192:15 0.0515486
30 *191:19 *192:19 0.0095432
31 *191:31 *652:sample_width[1] 0.000208387
*RES
1 la_data_in[28] *192:9 17.4029 
2 *192:9 *192:11 132.116 
3 *192:11 *192:13 15 
4 *192:13 *192:15 656.187 
5 *192:15 *192:17 15 
6 *192:17 *192:19 108.771 
7 *192:19 *652:sample_width[1] 42.677 
*END

*D_NET *193 0.17522
*CONN
*P la_data_in[29] I
*I *652:sample_width[2] I *D CF_ADC_SAR12
*CAP
1 la_data_in[29] 0.000342093
2 *652:sample_width[2] 0.000907661
3 *193:19 0.00288263
4 *193:17 0.00197497
5 *193:15 0.0181634
6 *193:13 0.0181634
7 *193:11 0.00211679
8 *193:9 0.00245888
9 *652:sample_width[2] *652:sample_width[4] 0
10 *652:sample_width[2] *652:sample_width[5] 0
11 *652:sample_width[2] *195:41 0.000556058
12 *193:9 *202:11 0.000115009
13 *193:11 *195:11 0.013734
14 *193:11 *196:11 0.00300467
15 *193:15 *241:17 0
16 *193:19 *195:19 0.000100488
17 *193:19 *202:19 0.00751462
18 *193:19 *208:21 0.000941811
19 *193:19 *283:15 0.000416411
20 *652:sample_width[1] *652:sample_width[2] 0.00395615
21 *179:25 *652:sample_width[2] 1.05658e-05
22 *186:13 *193:15 5.52162e-06
23 *187:15 *193:15 0.020307
24 *191:31 *652:sample_width[2] 0.004039
25 *192:11 *193:11 0.0120769
26 *192:15 *193:15 0.0515487
27 *192:19 *193:19 0.00988313
*RES
1 la_data_in[29] *193:9 18.0036 
2 *193:9 *193:11 150.22 
3 *193:11 *193:13 15 
4 *193:13 *193:15 656.187 
5 *193:15 *193:17 15 
6 *193:17 *193:19 111.153 
7 *193:19 *652:sample_width[2] 41.9042 
*END

*D_NET *194 0.117069
*CONN
*P la_data_in[2] I
*I *655:tp I *D CF_BUF_HIZ
*CAP
1 la_data_in[2] 0.00154077
2 *655:tp 0.00321417
3 *194:15 0.0166914
4 *194:13 0.0134773
5 *194:11 0.0189747
6 *194:9 0.0205155
7 *655:tp *655:clk1_boostr 0.0010425
8 *655:tp *655:e_na_boost 9.29488e-05
9 *194:15 *246:15 0.0294031
10 *655:vinp_na *655:tp 0.00132893
11 *22:25 *655:tp 0.00410919
12 *181:11 *194:11 0.00667835
13 *182:11 *194:11 0
*RES
1 la_data_in[2] *194:9 39.9311 
2 *194:9 *194:11 68.8781 
3 *194:11 *194:13 8 
4 *194:13 *194:15 69.4885 
5 *194:15 *655:tp 48.8718 
*END

*D_NET *195 0.132574
*CONN
*P la_data_in[30] I
*I *652:sample_width[3] I *D CF_ADC_SAR12
*CAP
1 la_data_in[30] 0.000283699
2 *652:sample_width[3] 0
3 *195:41 0.00428978
4 *195:19 0.0056653
5 *195:17 0.00137553
6 *195:15 0.0288206
7 *195:13 0.0288206
8 *195:11 0.00278343
9 *195:9 0.00306712
10 *195:9 *202:11 0.000115009
11 *195:11 *197:11 0.0164766
12 *195:11 *202:11 0.000123453
13 *195:11 *203:17 0.003071
14 *195:15 *196:15 0
15 *195:15 *197:15 0
16 *195:19 *200:25 0.0023865
17 *195:19 *202:19 1.32939e-05
18 *195:41 *652:sample_width[4] 0.000310739
19 *195:41 *652:sample_width[6] 0
20 *195:41 *652:sample_width[9] 0.000270734
21 *195:41 *208:21 0.000411117
22 *195:41 *210:17 0.000266631
23 *195:41 *212:19 0.000266631
24 *195:41 *214:17 0.000266631
25 *195:41 *294:15 0.000352154
26 *652:sample_width[1] *195:41 0.00047579
27 *652:test_scanen *195:41 0.000243446
28 *652:sof *195:19 0.000711099
29 *652:sample_width[2] *195:41 0.000556058
30 *178:27 *195:41 0.000411117
31 *179:25 *195:41 4.76373e-05
32 *179:27 *195:41 0.000304841
33 *180:19 *195:19 0.0046576
34 *184:7 *195:15 0.00338559
35 *186:25 *195:41 4.96824e-05
36 *191:19 *195:19 0.00819559
37 *191:31 *195:41 5.31675e-05
38 *192:19 *195:19 0.000210959
39 *193:11 *195:11 0.013734
40 *193:19 *195:19 0.000100488
*RES
1 la_data_in[30] *195:9 17.6514 
2 *195:9 *195:11 182.617 
3 *195:11 *195:13 15 
4 *195:13 *195:15 657.596 
5 *195:15 *195:17 15 
6 *195:17 *195:19 97.3364 
7 *195:19 *195:41 45.7023 
8 *195:41 *652:sample_width[3] 8 
*END

*D_NET *196 0.165646
*CONN
*P la_data_in[31] I
*I *652:sample_width[4] I *D CF_ADC_SAR12
*CAP
1 la_data_in[31] 0.00443621
2 *652:sample_width[4] 0.00348178
3 *196:15 0.0227204
4 *196:13 0.0192386
5 *196:11 0.00443621
6 *652:sample_width[4] *652:sample_width[5] 2.59218e-05
7 *652:sample_width[4] *199:17 0.012596
8 *652:sample_width[4] *203:23 0.0113025
9 *652:sample_width[4] *208:21 0.000141522
10 *196:11 *201:11 0.00424527
11 *196:11 *203:17 0.0194866
12 *196:15 *197:15 0.0505
13 *652:sample_width[2] *652:sample_width[4] 0
14 *187:13 *196:11 0.000138191
15 *189:13 *196:11 0.00729074
16 *192:11 *196:11 0.00229025
17 *193:11 *196:11 0.00300467
18 *195:15 *196:15 0
19 *195:41 *652:sample_width[4] 0.000310739
*RES
1 la_data_in[31] *196:11 46.3852 
2 *196:11 *196:13 8 
3 *196:13 *196:15 650.201 
4 *196:15 *652:sample_width[4] 42.3501 
*END

*D_NET *197 0.16089
*CONN
*P la_data_in[32] I
*I *652:sample_width[5] I *D CF_ADC_SAR12
*CAP
1 la_data_in[32] 0.00020055
2 *652:sample_width[5] 0.000352541
3 *197:19 0.00442024
4 *197:17 0.0040677
5 *197:15 0.0197777
6 *197:13 0.0197777
7 *197:11 0.00321543
8 *197:9 0.00341598
9 *652:sample_width[5] *652:sample_width[8] 0
10 *652:sample_width[5] *202:25 0
11 *197:11 *202:11 0.0198929
12 *197:11 *203:17 0.0042701
13 *197:19 *206:25 0.0124727
14 *197:19 *311:13 0.00086134
15 *652:sample_width[4] *652:sample_width[5] 2.59218e-05
16 *652:scan_test_mode *197:19 0.00073665
17 *652:hiz *197:19 0.000425691
18 *652:sample_width[2] *652:sample_width[5] 0
19 *184:7 *197:15 0
20 *191:31 *652:sample_width[5] 0
21 *195:11 *197:11 0.0164766
22 *195:15 *197:15 0
23 *196:15 *197:15 0.0505
*RES
1 la_data_in[32] *197:9 16.8229 
2 *197:9 *197:11 217.396 
3 *197:11 *197:13 15 
4 *197:13 *197:15 659.709 
5 *197:15 *197:17 15 
6 *197:17 *197:19 136.404 
7 *197:19 *652:sample_width[5] 20.945 
*END

*D_NET *198 0.173594
*CONN
*P la_data_in[33] I
*I *652:sample_width[6] I *D CF_ADC_SAR12
*CAP
1 la_data_in[33] 0.000172047
2 *652:sample_width[6] 0.00150579
3 *198:19 0.0363708
4 *198:17 0.0353881
5 *198:11 0.0150997
6 *198:9 0.0147487
7 *652:sample_width[6] *203:23 0.00170786
8 *198:11 *201:11 0.000665197
9 *198:11 *202:11 0.0043611
10 *198:11 *203:13 0.00106925
11 *198:11 *203:17 0.022691
12 *198:11 *241:11 0.00460733
13 *198:11 *242:11 0.00426685
14 *198:11 *243:11 0.0115535
15 *198:11 *244:11 0.00612195
16 *198:19 *283:31 0
17 *155:19 *198:11 0.00988119
18 *155:19 *198:17 0.00140377
19 *186:11 *198:11 0.00197943
20 *195:41 *652:sample_width[6] 0
*RES
1 la_data_in[33] *198:9 9.87464 
2 *198:9 *198:11 70.7672 
3 *198:11 *198:17 10.9867 
4 *198:17 *198:19 117.215 
5 *198:19 *652:sample_width[6] 22.5987 
*END

*D_NET *199 0.122895
*CONN
*P la_data_in[34] I
*I *652:sample_width[7] I *D CF_ADC_SAR12
*CAP
1 la_data_in[34] 0.000301906
2 *652:sample_width[7] 0
3 *199:17 0.0182263
4 *199:15 0.0182263
5 *199:13 0.0349192
6 *199:11 0.0352211
7 *199:11 *203:13 0.000143258
8 *199:13 *649:13 0
9 *199:17 *652:sample_width[9] 1.13444e-05
10 *199:17 *652:sel_csel_dft[0] 6.07327e-06
11 *199:17 *208:21 0
12 *199:17 *272:27 2.2465e-05
13 *199:17 *303:15 0.00312657
14 *652:sample_width[4] *199:17 0.012596
15 *652:test_scanen *199:17 1.35887e-05
16 *652:test_sea *199:17 3.58125e-05
17 *652:reset_n *199:17 4.53843e-05
*RES
1 la_data_in[34] *199:11 17.296 
2 *199:11 *199:13 117.469 
3 *199:13 *199:15 8 
4 *199:15 *199:17 70.2688 
5 *199:17 *652:sample_width[7] 8 
*END

*D_NET *200 0.140382
*CONN
*P la_data_in[35] I
*I *652:sample_width[8] I *D CF_ADC_SAR12
*CAP
1 la_data_in[35] 0.000202642
2 *652:sample_width[8] 0.000269177
3 *200:25 0.0098789
4 *200:23 0.00978748
5 *200:13 0.035437
6 *200:11 0.0354619
7 *652:sample_width[8] *652:sample_width[9] 0
8 *200:11 *203:13 4.93791e-05
9 *200:23 *208:21 6.601e-05
10 *200:23 *214:17 0
11 *200:25 *209:25 0.0371624
12 *652:sample_width[5] *652:sample_width[8] 0
13 *652:hiz *200:25 0.00100152
14 *180:19 *200:25 0.00770391
15 *191:19 *200:25 0.000538364
16 *191:31 *200:25 0.000436588
17 *195:19 *200:25 0.0023865
*RES
1 la_data_in[35] *200:11 17.1243 
2 *200:11 *200:13 118.612 
3 *200:13 *200:23 32.3819 
4 *200:23 *200:25 406.062 
5 *200:25 *652:sample_width[8] 19.4743 
*END

*D_NET *201 0.151871
*CONN
*P la_data_in[36] I
*I *652:sample_width[9] I *D CF_ADC_SAR12
*CAP
1 la_data_in[36] 0.000325004
2 *652:sample_width[9] 0.00334472
3 *201:15 0.0254679
4 *201:13 0.0221231
5 *201:11 0.014826
6 *201:9 0.015151
7 *652:sample_width[9] *208:21 9.22365e-05
8 *201:11 la_data_out[12] 0.00209349
9 *201:11 *203:13 0.00266622
10 *201:11 *203:17 0.000891296
11 *201:11 *241:19 0.00433733
12 *201:11 *262:11 0
13 *201:11 *355:25 0.00210318
14 *652:sample_width[8] *652:sample_width[9] 0
15 *155:19 *201:11 3.33565e-06
16 *175:13 *201:11 1.31391e-05
17 *179:11 *201:11 0.000867487
18 *187:13 *201:11 0.00387713
19 *189:13 *201:11 0.0019675
20 *190:15 *201:15 0.046528
21 *195:41 *652:sample_width[9] 0.000270734
22 *196:11 *201:11 0.00424527
23 *198:11 *201:11 0.000665197
24 *199:17 *652:sample_width[9] 1.13444e-05
*RES
1 la_data_in[36] *201:9 12.4639 
2 *201:9 *201:11 73.5149 
3 *201:11 *201:13 8 
4 *201:13 *201:15 111.377 
5 *201:15 *652:sample_width[9] 42.6625 
*END

*D_NET *202 0.22592
*CONN
*P la_data_in[37] I
*I *652:cap_trim[0] I *D CF_ADC_SAR12
*CAP
1 la_data_in[37] 0.000166715
2 *652:cap_trim[0] 0.000210492
3 *202:27 0.00491524
4 *202:25 0.00480872
5 *202:19 0.00360499
6 *202:17 0.00350102
7 *202:15 0.0183446
8 *202:13 0.0183446
9 *202:11 0.00569587
10 *202:9 0.00586258
11 *652:cap_trim[0] *652:cap_trim[1] 8.3639e-05
12 *202:11 *203:13 0.00112363
13 *202:11 *241:11 0.0274766
14 *202:11 *242:11 0.00131133
15 *202:15 *203:19 0.051108
16 *202:19 *208:21 0.000436588
17 *202:19 *283:15 0.00048075
18 *202:25 *206:31 0.000166095
19 *202:27 *206:33 1.76364e-05
20 *202:27 *209:47 0.00488117
21 *202:27 *311:13 0.0200314
22 *652:sample_width[1] *202:19 0.000570895
23 *652:sample_width[1] *202:27 1.31574e-05
24 *652:sample_width[5] *202:25 0
25 *652:sample_width[0] *202:19 1.94693e-05
26 *652:enable_hv *652:cap_trim[0] 0.000173376
27 *178:27 *202:27 0.00170927
28 *179:19 *202:19 0.00472538
29 *180:19 *202:19 0.000403367
30 *180:27 *202:27 0.0132634
31 *182:9 *202:15 0
32 *187:13 *202:11 0.000115009
33 *191:9 *202:11 0.000115009
34 *191:31 *202:25 0.000105035
35 *193:9 *202:11 0.000115009
36 *193:19 *202:19 0.00751462
37 *195:9 *202:11 0.000115009
38 *195:11 *202:11 0.000123453
39 *195:19 *202:19 1.32939e-05
40 *197:11 *202:11 0.0198929
41 *198:11 *202:11 0.0043611
*RES
1 la_data_in[37] *202:9 17.2993 
2 *202:9 *202:11 325.546 
3 *202:11 *202:13 15 
4 *202:13 *202:15 656.891 
5 *202:15 *202:17 15 
6 *202:17 *202:19 123.54 
7 *202:19 *202:25 25.7861 
8 *202:25 *202:27 45.4795 
9 *202:27 *652:cap_trim[0] 13.6602 
*END

*D_NET *203 0.218035
*CONN
*P la_data_in[38] I
*I *652:cap_trim[1] I *D CF_ADC_SAR12
*CAP
1 la_data_in[38] 0.00506919
2 *652:cap_trim[1] 0.000919038
3 *203:23 0.0169989
4 *203:21 0.0160798
5 *203:19 0.0179873
6 *203:17 0.0226615
7 *203:13 0.0097434
8 *652:cap_trim[1] *652:cap_trim[2] 6.05159e-05
9 *652:cap_trim[1] *652:pd_ana 0.000427238
10 *652:cap_trim[1] *206:33 9.58101e-05
11 *652:cap_trim[1] *208:21 3.065e-05
12 *652:cap_trim[1] *260:41 2.38218e-05
13 *203:13 *241:11 0.00127063
14 *203:13 *242:11 0.00112291
15 *203:13 *243:11 0.00178922
16 *203:13 *244:11 0.000916319
17 *203:23 *652:sel_csel_dft[2] 2.75733e-05
18 *203:23 *208:21 0
19 *203:23 *260:41 0
20 *203:23 *333:23 0.00314721
21 *652:sample_width[4] *203:23 0.0113025
22 *652:sample_width[6] *203:23 0.00170786
23 *652:resolution[0] *203:23 0
24 *652:resolution[1] *203:23 0
25 *652:cap_trim[0] *652:cap_trim[1] 8.3639e-05
26 *18:35 *203:23 0
27 *195:11 *203:17 0.003071
28 *196:11 *203:17 0.0194866
29 *197:11 *203:17 0.0042701
30 *198:11 *203:13 0.00106925
31 *198:11 *203:17 0.022691
32 *199:11 *203:13 0.000143258
33 *200:11 *203:13 4.93791e-05
34 *201:11 *203:13 0.00266622
35 *201:11 *203:17 0.000891296
36 *202:11 *203:13 0.00112363
37 *202:15 *203:19 0.051108
*RES
1 la_data_in[38] *203:13 30.8116 
2 *203:13 *203:17 49.8301 
3 *203:17 *203:19 650.201 
4 *203:19 *203:21 8 
5 *203:21 *203:23 66.4739 
6 *203:23 *652:cap_trim[1] 12.622 
*END

*D_NET *204 0.157113
*CONN
*P la_data_in[39] I
*I *652:cap_trim[2] I *D CF_ADC_SAR12
*CAP
1 la_data_in[39] 7.44843e-05
2 *652:cap_trim[2] 0.000231681
3 *204:15 0.033934
4 *204:13 0.0337024
5 *204:11 0.0407719
6 *204:9 0.0407719
7 *204:7 0.00370302
8 *204:5 0.0037775
9 *652:cap_trim[2] *206:33 8.52907e-05
10 *204:11 *216:15 0
11 *204:11 *227:11 0
12 *204:11 *377:23 0
13 *204:11 *388:21 0
14 *652:cap_trim[1] *652:cap_trim[2] 6.05159e-05
15 *159:15 *204:11 0
16 *181:15 *204:15 0
*RES
1 la_data_in[39] *204:5 1.02536 
2 *204:5 *204:7 80.4336 
3 *204:7 *204:9 8 
4 *204:9 *204:11 133.879 
5 *204:11 *204:13 8 
6 *204:13 *204:15 103.634 
7 *204:15 *652:cap_trim[2] 17.3247 
*END

*D_NET *205 0.110218
*CONN
*P la_data_in[3] I
*I *655:clk2_boost I *D CF_BUF_HIZ
*CAP
1 la_data_in[3] 4.53735e-05
2 *655:clk2_boost 7.64144e-05
3 *205:15 0.0128514
4 *205:13 0.012775
5 *205:11 0.0268966
6 *205:9 0.0268966
7 *205:7 0.00277642
8 *205:5 0.00282179
9 *655:clk2_boost *655:clk1_boostr 3.44405e-05
10 *655:clk2_boost *655:e_na_boost 2.41073e-05
11 *205:11 *207:11 0
12 *205:11 *238:11 0
13 *205:15 *216:19 0.0249666
14 *655:vinn_n *655:clk2_boost 4.37026e-05
15 *655:vinp_na *655:clk2_boost 9.41755e-06
*RES
1 la_data_in[3] *205:5 1.02536 
2 *205:5 *205:7 58.6007 
3 *205:7 *205:9 8 
4 *205:9 *205:11 89.0568 
5 *205:11 *205:13 8 
6 *205:13 *205:15 64.1573 
7 *205:15 *655:clk2_boost 32.1308 
*END

*D_NET *206 0.212347
*CONN
*P la_data_in[40] I
*I *652:icont_lv[0] I *D CF_ADC_SAR12
*CAP
1 la_data_in[40] 0.000255004
2 *652:icont_lv[0] 9.51621e-05
3 *206:33 0.00513098
4 *206:31 0.00513766
5 *206:25 0.0125556
6 *206:23 0.0125425
7 *206:13 0.0353364
8 *206:11 0.0355027
9 *652:icont_lv[0] *652:icont_lv[1] 6.66191e-05
10 *206:23 *208:21 6.07327e-06
11 *206:25 *209:25 0.046373
12 *206:25 *311:13 0.000746066
13 *206:31 *209:47 4.60157e-05
14 *206:33 *652:pd_ana 4.58557e-05
15 *206:33 *208:21 0.0131027
16 *206:33 *209:47 0.00503204
17 *652:sample_width[1] *206:33 2.81221e-05
18 *652:scan_test_mode *206:25 0.000834589
19 *652:hiz *206:25 0.000481215
20 *652:cap_trim[2] *206:33 8.52907e-05
21 *652:cap_trim[1] *206:33 9.58101e-05
22 *652:dly_inc *652:icont_lv[0] 0.000125762
23 *652:dcen *206:33 1.3331e-05
24 *180:25 *206:31 1.98028e-05
25 *180:27 *206:33 0.0260321
26 *197:19 *206:25 0.0124727
27 *202:25 *206:31 0.000166095
28 *202:27 *206:33 1.76364e-05
*RES
1 la_data_in[40] *206:11 17.296 
2 *206:11 *206:13 118.866 
3 *206:13 *206:23 31.42 
4 *206:23 *206:25 506.589 
5 *206:25 *206:31 25.4339 
6 *206:31 *206:33 48.1413 
7 *206:33 *652:icont_lv[0] 11.3764 
*END

*D_NET *207 0.202897
*CONN
*P la_data_in[41] I
*I *652:icont_lv[1] I *D CF_ADC_SAR12
*CAP
1 la_data_in[41] 7.48361e-05
2 *652:icont_lv[1] 2.10369e-05
3 *207:15 0.0302487
4 *207:13 0.0302277
5 *207:11 0.0297684
6 *207:9 0.0297684
7 *207:7 0.00245446
8 *207:5 0.0025293
9 *207:7 *208:17 0.000684594
10 *207:11 *225:11 0
11 *207:11 *344:17 0
12 *207:11 *528:17 0.0718768
13 *652:icont_lv[0] *652:icont_lv[1] 6.66191e-05
14 *181:15 *207:15 0.00517602
15 *205:11 *207:11 0
*RES
1 la_data_in[41] *207:5 1.02536 
2 *207:5 *207:7 52.2621 
3 *207:7 *207:9 8 
4 *207:9 *207:11 142.552 
5 *207:11 *207:13 8 
6 *207:13 *207:15 108.711 
7 *207:15 *652:icont_lv[1] 16.7768 
*END

*D_NET *208 0.18158
*CONN
*P la_data_in[42] I
*I *652:dft_inc[0] I *D CF_ADC_SAR12
*CAP
1 la_data_in[42] 0.00109147
2 *652:dft_inc[0] 3.58198e-05
3 *208:21 0.0355377
4 *208:19 0.0355018
5 *208:17 0.0329277
6 *208:15 0.0340192
7 *652:dft_inc[0] *652:dft_inc[1] 0.000110742
8 *652:dft_inc[0] *652:dft_outc[2] 0.0001077
9 *208:15 *209:11 0.000149187
10 *208:15 *242:11 0.000325643
11 *208:15 *243:11 0.000522642
12 *208:15 *244:11 0.000295977
13 *208:21 *652:sel_csel_dft[0] 4.62843e-05
14 *208:21 *652:pd_ana 0.00020201
15 *208:21 *652:refclk 9.59396e-05
16 *208:21 *209:47 7.96792e-06
17 *208:21 *260:41 0.000435476
18 *208:21 *272:27 0.0010707
19 *208:21 *283:15 0.00306724
20 *208:21 *303:15 0.000197828
21 *208:21 *322:17 0.000140203
22 *208:21 *333:23 4.51815e-05
23 *208:21 *344:11 4.51815e-05
24 *208:21 *366:11 0.000161352
25 *208:21 *377:11 0.000423762
26 *208:21 *388:13 0.000118807
27 *652:sample_width[1] *208:21 0.00434117
28 *652:sample_width[4] *208:21 0.000141522
29 *652:sample_width[9] *208:21 9.22365e-05
30 *652:scan_test_mode *208:21 0
31 *652:test_scanen *208:21 0.000454109
32 *652:hiz *208:21 9.81333e-06
33 *652:sof *208:21 0.000470738
34 *652:test_sea *208:21 0.000333843
35 *652:reset_n *208:21 0.000120325
36 *652:iso_en *208:21 0.000415346
37 *652:vdda *208:21 2.37336e-05
38 *652:VPUMP *208:21 2.37336e-05
39 *652:cap_trim[1] *208:21 3.065e-05
40 *161:17 *208:17 0.0107631
41 *175:19 *208:21 0.000601598
42 *179:19 *208:21 0.000650615
43 *191:19 *208:21 0.000571166
44 *191:31 *208:21 5.43736e-05
45 *192:19 *208:21 0.000149552
46 *193:19 *208:21 0.000941811
47 *195:41 *208:21 0.000411117
48 *199:17 *208:21 0
49 *200:23 *208:21 6.601e-05
50 *202:19 *208:21 0.000436588
51 *203:23 *208:21 0
52 *206:23 *208:21 6.07327e-06
53 *206:33 *208:21 0.0131027
54 *207:7 *208:17 0.000684594
*RES
1 la_data_in[42] *208:15 20.6262 
2 *208:15 *208:17 118.231 
3 *208:17 *208:19 8 
4 *208:19 *208:21 138.948 
5 *208:21 *652:dft_inc[0] 9.48107 
*END

*D_NET *209 0.236548
*CONN
*P la_data_in[43] I
*I *652:dft_inc[1] I *D CF_ADC_SAR12
*CAP
1 la_data_in[43] 0.00116973
2 *652:dft_inc[1] 5.33544e-05
3 *209:47 0.0159209
4 *209:25 0.0247787
5 *209:23 0.00927294
6 *209:13 0.0335702
7 *209:11 0.0343781
8 *652:dft_inc[1] *652:dft_inc[2] 0.000166333
9 *652:dft_inc[1] *652:dft_outc[2] 2.56923e-05
10 *209:11 *242:11 0.00028341
11 *209:11 *243:11 0.000442712
12 *209:11 *244:11 0.00025071
13 *209:23 *214:17 0
14 *209:47 *652:pd_ana 2.10583e-05
15 *209:47 *210:17 0.00239643
16 *209:47 *212:19 0.00237088
17 *209:47 *214:17 0.00237088
18 *209:47 *294:15 0.000123642
19 *652:hiz *209:25 0.000881839
20 *652:dft_inc[0] *652:dft_inc[1] 0.000110742
21 *163:17 *209:13 0.00467436
22 *178:27 *209:47 0.000142299
23 *179:27 *209:47 0.00272254
24 *180:19 *209:25 0.000405757
25 *180:27 *209:47 0.00592916
26 *191:31 *209:25 0.000433645
27 *200:25 *209:25 0.0371624
28 *202:27 *209:47 0.00488117
29 *206:25 *209:25 0.046373
30 *206:31 *209:47 4.60157e-05
31 *206:33 *209:47 0.00503204
32 *208:15 *209:11 0.000149187
33 *208:21 *209:47 7.96792e-06
*RES
1 la_data_in[43] *209:11 20.9495 
2 *209:11 *209:13 118.739 
3 *209:13 *209:23 32.8025 
4 *209:23 *209:25 535.651 
5 *209:25 *209:47 47.5225 
6 *209:47 *652:dft_inc[1] 10.4909 
*END

*D_NET *210 0.235406
*CONN
*P la_data_in[44] I
*I *652:dft_inc[2] I *D CF_ADC_SAR12
*CAP
1 la_data_in[44] 0.000255004
2 *652:dft_inc[2] 0.000266301
3 *210:17 0.0157344
4 *210:15 0.0154681
5 *210:13 0.0342508
6 *210:11 0.0345058
7 *652:dft_inc[2] *652:dft_inc[3] 0.000810946
8 *652:dft_inc[2] *652:dft_outc[2] 0.000162531
9 *652:dft_inc[2] *652:dft_outc[1] 0
10 *210:17 *212:19 0.0808735
11 *210:17 *214:17 4.35362e-05
12 *210:17 *255:15 0.0436021
13 *652:test_scanen *210:17 0.00122726
14 *652:dft_inc[1] *652:dft_inc[2] 0.000166333
15 *167:17 *210:13 0.00532698
16 *179:27 *210:17 4.89323e-05
17 *195:41 *210:17 0.000266631
18 *209:47 *210:17 0.00239643
*RES
1 la_data_in[44] *210:11 17.296 
2 *210:11 *210:13 119.881 
3 *210:13 *210:15 8 
4 *210:15 *210:17 149.249 
5 *210:17 *652:dft_inc[2] 18.9423 
*END

*D_NET *211 0.223371
*CONN
*P la_data_in[45] I
*I *652:dft_inc[3] I *D CF_ADC_SAR12
*CAP
1 la_data_in[45] 0.000255004
2 *652:dft_inc[3] 0.000676937
3 *211:17 0.0233545
4 *211:15 0.0226775
5 *211:13 0.0332664
6 *211:11 0.0335214
7 *652:dft_inc[3] *652:dft_outc[1] 0
8 *211:13 *213:12 0.00568246
9 *211:17 *213:16 0.0799596
10 *211:17 *263:15 0.0231377
11 *652:trimunit *652:dft_inc[3] 0
12 *652:dft_inc[2] *652:dft_inc[3] 0.000810946
13 *4:21 *211:17 2.81521e-05
*RES
1 la_data_in[45] *211:11 17.296 
2 *211:11 *211:13 121.023 
3 *211:13 *211:15 8 
4 *211:15 *211:17 152.598 
5 *211:17 *652:dft_inc[3] 25.2809 
*END

*D_NET *212 0.283633
*CONN
*P la_data_in[46] I
*I *652:dft_outc[0] I *D CF_ADC_SAR12
*CAP
1 la_data_in[46] 0.000247793
2 *652:dft_outc[0] 0.000364837
3 *212:19 0.0136791
4 *212:17 0.0133142
5 *212:15 0.025592
6 *212:13 0.0258398
7 *652:dft_outc[0] *652:pd_ana 3.77951e-05
8 *652:dft_outc[0] *652:dft_outc[1] 0.000746577
9 *212:13 *213:10 5.10545e-05
10 *212:15 *214:13 0.0211184
11 *212:19 *214:17 0.0845262
12 *212:19 *255:15 0.00134301
13 *652:test_scanen *212:19 0.00135099
14 *153:17 *212:15 0.0119105
15 *195:41 *212:19 0.000266631
16 *209:47 *212:19 0.00237088
17 *210:17 *212:19 0.0808735
*RES
1 la_data_in[46] *212:13 17.9736 
2 *212:13 *212:15 119.881 
3 *212:15 *212:17 8 
4 *212:17 *212:19 155.518 
5 *212:19 *652:dft_outc[0] 18.238 
*END

*D_NET *213 0.226164
*CONN
*P la_data_in[47] I
*I *652:dft_outc[1] I *D CF_ADC_SAR12
*CAP
1 la_data_in[47] 0.00172224
2 *652:dft_outc[1] 0.00053741
3 *213:33 8.07405e-05
4 *213:16 0.0245191
5 *213:14 0.0239817
6 *213:12 0.0333027
7 *213:10 0.0349442
8 *652:dft_outc[1] *652:dft_outc[2] 0.000692717
9 *213:10 *214:11 0.000568177
10 *213:10 *215:11 0.000385829
11 *213:10 *241:11 0.000522028
12 *213:10 *242:11 0.000582568
13 *213:10 *243:11 0.00136524
14 *213:10 *244:11 0.00067258
15 *213:16 *256:15 0.0109893
16 *213:16 *263:15 7.85489e-05
17 *652:dft_inc[3] *652:dft_outc[1] 0
18 *652:dft_inc[2] *652:dft_outc[1] 0
19 *652:dft_outc[0] *652:dft_outc[1] 0.000746577
20 *4:21 *213:16 0.00477953
21 *211:13 *213:12 0.00568246
22 *211:17 *213:16 0.0799596
23 *212:13 *213:10 5.10545e-05
*RES
1 la_data_in[47] *213:10 22.7116 
2 *213:10 *213:12 121.15 
3 *213:12 *213:14 8 
4 *213:14 *213:16 152.856 
5 *213:16 *652:dft_outc[1] 24.5766 
6 la_data_in[47] *213:33 1.16 
*END

*D_NET *214 0.273987
*CONN
*P la_data_in[48] I
*I *652:dft_outc[2] I *D CF_ADC_SAR12
*CAP
1 la_data_in[48] 0.00114403
2 *652:dft_outc[2] 0.000242731
3 *214:17 0.0222462
4 *214:15 0.0220034
5 *214:13 0.0302651
6 *214:11 0.0314091
7 *214:11 *215:11 0.00203063
8 *214:17 *255:15 4.46405e-05
9 *214:17 *294:15 3.34501e-05
10 *652:scan_test_mode *214:17 9.29266e-05
11 *652:test_scanen *214:17 0.00144176
12 *652:dft_inc[2] *652:dft_outc[2] 0.000162531
13 *652:dft_inc[1] *652:dft_outc[2] 2.56923e-05
14 *652:dft_inc[0] *652:dft_outc[2] 0.0001077
15 *652:dft_outc[1] *652:dft_outc[2] 0.000692717
16 *153:17 *214:13 0.0119052
17 *156:19 *214:11 0.0019503
18 *179:27 *214:17 0.0282479
19 *186:25 *214:17 0.0110472
20 *195:41 *214:17 0.000266631
21 *200:23 *214:17 0
22 *209:23 *214:17 0
23 *209:47 *214:17 0.00237088
24 *210:17 *214:17 4.35362e-05
25 *212:15 *214:13 0.0211184
26 *212:19 *214:17 0.0845262
27 *213:10 *214:11 0.000568177
*RES
1 la_data_in[48] *214:11 23.8302 
2 *214:11 *214:13 119.627 
3 *214:13 *214:15 8 
4 *214:15 *214:17 156.033 
5 *214:17 *652:dft_outc[2] 17.5338 
*END

*D_NET *215 0.154001
*CONN
*P la_data_in[49] I
*I *652:sel_csel_dft[0] I *D CF_ADC_SAR12
*CAP
1 la_data_in[49] 0.0011634
2 *652:sel_csel_dft[0] 0.00172683
3 *215:17 0.0336361
4 *215:15 0.0319093
5 *215:13 0.0288201
6 *215:11 0.0299835
7 *652:sel_csel_dft[0] *652:sel_csel_dft[2] 0.00247657
8 *652:sel_csel_dft[0] *652:sel_csel_dft[1] 0.00155737
9 *215:11 *217:11 0.00256858
10 *215:11 *242:11 0.000197056
11 *215:11 *243:11 0.000334697
12 *215:11 *244:11 0.000170683
13 *215:17 *218:19 0
14 *652:test_scanen *652:sel_csel_dft[0] 1.09583e-05
15 *652:hiz *652:sel_csel_dft[0] 0
16 *652:test_sea *652:sel_csel_dft[0] 0.000291808
17 *156:19 *215:11 0.0010185
18 *156:23 *215:13 0.0156664
19 *199:17 *652:sel_csel_dft[0] 6.07327e-06
20 *208:21 *652:sel_csel_dft[0] 4.62843e-05
21 *213:10 *215:11 0.000385829
22 *214:11 *215:11 0.00203063
*RES
1 la_data_in[49] *215:11 24.3371 
2 *215:11 *215:13 109.98 
3 *215:13 *215:15 8 
4 *215:15 *215:17 106.359 
5 *215:17 *652:sel_csel_dft[0] 33.1824 
*END

*D_NET *216 0.111888
*CONN
*P la_data_in[4] I
*I *655:e_n_boost I *D CF_BUF_HIZ
*CAP
1 la_data_in[4] 0.00172818
2 *655:e_n_boost 0.000120268
3 *216:19 0.0113417
4 *216:17 0.0112214
5 *216:15 0.0279852
6 *216:13 0.0279852
7 *216:11 0.002391
8 *216:9 0.00411918
9 *655:e_n_boost *655:clk1_boostr 1.00758e-05
10 *655:e_n_boost *655:e_na_boost 1.92489e-05
11 *216:15 *272:33 0
12 *655:vinp_n *655:e_n_boost 0
13 *204:11 *216:15 0
14 *205:15 *216:19 0.0249666
*RES
1 la_data_in[4] *216:9 36.9439 
2 *216:9 *216:11 53.505 
3 *216:11 *216:13 8 
4 *216:13 *216:15 92.4056 
5 *216:15 *216:17 8 
6 *216:17 *216:19 58.8261 
7 *216:19 *655:e_n_boost 32.7402 
*END

*D_NET *217 0.15725
*CONN
*P la_data_in[50] I
*I *652:sel_csel_dft[1] I *D CF_ADC_SAR12
*CAP
1 la_data_in[50] 0.00191211
2 *652:sel_csel_dft[1] 0.000949323
3 *217:17 0.0343129
4 *217:15 0.0333636
5 *217:13 0.0342466
6 *217:11 0.0361587
7 *217:11 *241:11 0.000705861
8 *217:11 *242:11 0.000799478
9 *217:11 *243:11 0.00184601
10 *217:11 *244:11 0.000923004
11 *217:17 *218:19 0
12 *217:17 *219:15 0
13 *217:17 *355:17 0.000295855
14 *652:sel_csel_dft[0] *652:sel_csel_dft[1] 0.00155737
15 *156:19 *217:11 0.000609005
16 *165:17 *217:13 0.00700164
17 *215:11 *217:11 0.00256858
*RES
1 la_data_in[50] *217:11 25.4146 
2 *217:11 *217:13 112.646 
3 *217:13 *217:15 8 
4 *217:15 *217:17 109.107 
5 *217:17 *652:sel_csel_dft[1] 28.0647 
*END

*D_NET *218 0.158436
*CONN
*P la_data_in[51] I
*I *652:sel_csel_dft[2] I *D CF_ADC_SAR12
*CAP
1 la_data_in[51] 0.000562251
2 *652:sel_csel_dft[2] 0.000808122
3 *218:19 0.0365102
4 *218:17 0.035702
5 *218:15 0.0298852
6 *218:13 0.0304474
7 *218:13 *231:13 0.00108898
8 *218:15 *231:15 0.0184151
9 *652:sel_csel_dft[0] *652:sel_csel_dft[2] 0.00247657
10 *652:test_sea *652:sel_csel_dft[2] 0.00133843
11 *156:19 *218:13 0.00117469
12 *203:23 *652:sel_csel_dft[2] 2.75733e-05
13 *215:17 *218:19 0
14 *217:17 *218:19 0
*RES
1 la_data_in[51] *218:13 20.1202 
2 *218:13 *218:15 111.123 
3 *218:15 *218:17 8 
4 *218:17 *218:19 117.865 
5 *218:19 *652:sel_csel_dft[2] 30.0097 
*END

*D_NET *219 0.138838
*CONN
*P la_data_in[52] I
*I *652:sel_csel_dft[3] I *D CF_ADC_SAR12
*CAP
1 la_data_in[52] 0.00184176
2 *652:sel_csel_dft[3] 0.000674935
3 *219:15 0.0359481
4 *219:13 0.0352731
5 *219:11 0.0259331
6 *219:9 0.0277748
7 *652:sel_csel_dft[3] *344:13 0
8 *219:11 *268:15 0
9 *219:15 *355:17 0
10 *652:test_sea *652:sel_csel_dft[3] 0.00102015
11 *189:23 *219:15 0.010372
12 *217:17 *219:15 0
*RES
1 la_data_in[52] *219:9 36.9439 
2 *219:9 *219:11 596.509 
3 *219:11 *219:13 8 
4 *219:13 *219:15 122.974 
5 *219:15 *652:sel_csel_dft[3] 26.7244 
*END

*D_NET *220 0.0546381
*CONN
*P la_data_in[53] I
*I *653:vref[0] I *D CF_ADC_SAR12_sar_refs
*CAP
1 la_data_in[53] 0.00188481
2 *653:vref[0] 0.000580123
3 *220:15 0.0212174
4 *220:13 0.0206373
5 *220:11 0.0037467
6 *220:9 0.00563151
7 *653:vref[0] *653:vref[4] 7.54512e-05
8 *653:vref[0] *653:vref[2] 5.29107e-05
9 *653:vref[0] *653:vref[1] 3.93037e-05
10 *653:vref[0] *653:IREF_VCMBUF 4.45155e-06
11 *653:vref[0] *653:IREF_VREFBUF 0.000272286
12 *653:vref[0] *648:15 3.78533e-05
13 *653:vref[0] *649:13 0.000155273
14 *220:15 *653:IREF_VCMBUF 0.00030281
15 *220:15 *653:IREF_VREFBUF 0
16 *220:15 *649:13 0
*RES
1 la_data_in[53] *220:9 36.9439 
2 *220:9 *220:11 83.085 
3 *220:11 *220:13 8 
4 *220:13 *220:15 70.1661 
5 *220:15 *653:vref[0] 2.9848 
*END

*D_NET *221 0.0742525
*CONN
*P la_data_in[54] I
*I *653:vref[1] I *D CF_ADC_SAR12_sar_refs
*CAP
1 la_data_in[54] 0.00065083
2 *653:vref[1] 0.00606759
3 *221:11 0.0220087
4 *221:9 0.016592
5 *653:vref[1] *653:vref[3] 0
6 *653:vref[1] *653:vref[2] 0.000803705
7 *221:11 *257:11 0
8 *221:11 *262:11 0.0141696
9 *653:vref[0] *653:vref[1] 3.93037e-05
10 *153:11 *221:11 0.0139208
11 *164:11 *221:11 0
*RES
1 la_data_in[54] *221:9 19.5068 
2 *221:9 *221:11 74.7171 
3 *221:11 *653:vref[1] 35.7465 
*END

*D_NET *222 0.0864999
*CONN
*P la_data_in[55] I
*I *653:vref[2] I *D CF_ADC_SAR12_sar_refs
*CAP
1 la_data_in[55] 0.00187257
2 *653:vref[2] 0.00119661
3 *222:15 0.0169364
4 *222:13 0.0157397
5 *222:11 0.00247864
6 *222:9 0.00435121
7 *653:vref[2] *653:vref[3] 0.00107358
8 *653:vref[1] *653:vref[2] 0.000803705
9 *653:vref[0] *653:vref[2] 5.29107e-05
10 *159:15 *222:15 0.0419946
11 *168:15 *222:15 0
*RES
1 la_data_in[55] *222:9 36.9439 
2 *222:9 *222:11 54.2093 
3 *222:11 *222:13 8 
4 *222:13 *222:15 77.8083 
5 *222:15 *653:vref[2] 21.7045 
*END

*D_NET *223 0.0840572
*CONN
*P la_data_in[56] I
*I *653:vref[3] I *D CF_ADC_SAR12_sar_refs
*CAP
1 la_data_in[56] 0.00176067
2 *653:vref[3] 0.00420554
3 *223:11 0.0222186
4 *223:9 0.0197737
5 *653:vref[3] *653:vref[4] 0.00136728
6 *653:vref[2] *653:vref[3] 0.00107358
7 *653:vref[1] *653:vref[3] 0
8 *158:11 *223:11 0.0336579
9 *169:11 *223:11 0
*RES
1 la_data_in[56] *223:9 41.5675 
2 *223:9 *223:11 80.8995 
3 *223:11 *653:vref[3] 31.9124 
*END

*D_NET *224 0.091354
*CONN
*P la_data_in[57] I
*I *653:vref[4] I *D CF_ADC_SAR12_sar_refs
*CAP
1 la_data_in[57] 0.000143933
2 *653:vref[4] 0.00246124
3 *224:11 0.0191193
4 *224:9 0.016658
5 *224:7 0.00316119
6 *224:5 0.00330513
7 *653:vref[3] *653:vref[4] 0.00136728
8 *653:vref[0] *653:vref[4] 7.54512e-05
9 *161:11 *224:11 0
10 *162:11 *224:11 0.0450625
*RES
1 la_data_in[57] *224:5 1.02536 
2 *224:5 *224:7 67.0521 
3 *224:7 *224:9 8 
4 *224:9 *224:11 83.3896 
5 *224:11 *653:vref[4] 25.6675 
*END

*D_NET *225 0.117113
*CONN
*P la_data_in[58] I
*I *653:PWR_CTRL_VREF[0] I *D CF_ADC_SAR12_sar_refs
*CAP
1 la_data_in[58] 0.000143933
2 *653:PWR_CTRL_VREF[0] 0.000213636
3 *225:15 0.00733134
4 *225:11 0.0399216
5 *225:9 0.0328039
6 *225:7 0.00282999
7 *225:5 0.00297392
8 *653:PWR_CTRL_VREF[0] *653:PWR_CTRL_VREF[1] 3.39559e-05
9 *653:PWR_CTRL_VREF[0] *226:23 0.000143258
10 *225:15 *653:muxsarref[2] 0.00029467
11 *225:15 *226:23 0.0117713
12 *653:enable_hv *653:PWR_CTRL_VREF[0] 0
13 *154:25 *653:PWR_CTRL_VREF[0] 0
14 *162:11 *225:11 0
15 *163:11 *225:11 0
16 *165:11 *225:11 0.0185863
17 *168:27 *653:PWR_CTRL_VREF[0] 1.68715e-05
18 *168:27 *225:15 4.82927e-05
19 *207:11 *225:11 0
*RES
1 la_data_in[58] *225:5 1.02536 
2 *225:5 *225:7 60.0093 
3 *225:7 *225:9 8 
4 *225:9 *225:11 120.742 
5 *225:11 *225:15 42.328 
6 *225:15 *653:PWR_CTRL_VREF[0] 18.1453 
*END

*D_NET *226 0.152599
*CONN
*P la_data_in[59] I
*I *653:PWR_CTRL_VREF[1] I *D CF_ADC_SAR12_sar_refs
*CAP
1 la_data_in[59] 0.00185949
2 *653:PWR_CTRL_VREF[1] 0.000201377
3 *226:23 0.00298843
4 *226:15 0.0269981
5 *226:13 0.024211
6 *226:11 0.00276548
7 *226:9 0.00462498
8 *653:PWR_CTRL_VREF[0] *653:PWR_CTRL_VREF[1] 3.39559e-05
9 *653:PWR_CTRL_VREF[0] *226:23 0.000143258
10 *653:enable_hv *226:23 0
11 *653:PD_BUF_VREF *653:PWR_CTRL_VREF[1] 8.7178e-05
12 *168:15 *226:15 0.0651174
13 *168:27 *226:23 0.0117975
14 *225:15 *226:23 0.0117713
*RES
1 la_data_in[59] *226:9 36.9439 
2 *226:9 *226:11 61.2521 
3 *226:11 *226:13 8 
4 *226:13 *226:15 124.005 
5 *226:15 *226:23 44.3416 
6 *226:23 *653:PWR_CTRL_VREF[1] 27.262 
*END

*D_NET *227 0.104086
*CONN
*P la_data_in[5] I
*I *655:e_na_boost I *D CF_BUF_HIZ
*CAP
1 la_data_in[5] 4.49146e-05
2 *655:e_na_boost 0.000559027
3 *227:15 0.0133693
4 *227:13 0.0128103
5 *227:11 0.0274103
6 *227:9 0.0274103
7 *227:7 0.00340438
8 *227:5 0.00344929
9 *655:e_na_boost *655:clk1_boostr 0.00115724
10 *227:7 la_data_out[5] 0
11 *227:15 *238:15 0.0143351
12 *655:tp *655:e_na_boost 9.29488e-05
13 *655:clk2_boost *655:e_na_boost 2.41073e-05
14 *655:e_n_boost *655:e_na_boost 1.92489e-05
15 *204:11 *227:11 0
*RES
1 la_data_in[5] *227:5 1.02536 
2 *227:5 *227:7 74.095 
3 *227:7 *227:9 8 
4 *227:9 *227:11 93.436 
5 *227:11 *227:13 8 
6 *227:13 *227:15 61.4917 
7 *227:15 *655:e_na_boost 35.0434 
*END

*D_NET *228 0.128881
*CONN
*P la_data_in[60] I
*I *653:muxsarref[0] I *D CF_ADC_SAR12_sar_refs
*CAP
1 la_data_in[60] 0.00185949
2 *653:muxsarref[0] 0.000124636
3 *228:15 0.0237319
4 *228:13 0.0236072
5 *228:11 0.00493636
6 *228:9 0.00679585
7 *653:muxsarref[0] *653:muxsarref[1] 0.000214755
8 *228:15 *229:15 0.067611
9 *653:enpdb_hv *228:15 0
10 *165:19 *228:15 0
11 *167:19 *228:15 0
*RES
1 la_data_in[60] *228:9 36.9439 
2 *228:9 *228:11 111.256 
3 *228:11 *228:13 8 
4 *228:13 *228:15 124.563 
5 *228:15 *653:muxsarref[0] 11.827 
*END

*D_NET *229 0.130827
*CONN
*P la_data_in[61] I
*I *653:muxsarref[1] I *D CF_ADC_SAR12_sar_refs
*CAP
1 la_data_in[61] 0.00185949
2 *653:muxsarref[1] 0.000145937
3 *229:15 0.0247469
4 *229:13 0.0246009
5 *229:11 0.00489415
6 *229:9 0.00675364
7 *653:muxsarref[0] *653:muxsarref[1] 0.000214755
8 *14:11 *229:15 0
9 *228:15 *229:15 0.067611
*RES
1 la_data_in[61] *229:9 36.9439 
2 *229:9 *229:11 110.552 
3 *229:11 *229:13 8 
4 *229:13 *229:15 127.74 
5 *229:15 *653:muxsarref[1] 12.3914 
*END

*D_NET *230 0.13654
*CONN
*P la_data_in[62] I
*I *653:muxsarref[2] I *D CF_ADC_SAR12_sar_refs
*CAP
1 la_data_in[62] 0.00197669
2 *653:muxsarref[2] 0.00531125
3 *230:11 0.0335185
4 *230:9 0.030184
5 *230:9 *268:11 0.000115009
6 *160:11 *230:11 0
7 *168:27 *653:muxsarref[2] 0.0020458
8 *169:11 *230:11 0.063094
9 *225:15 *653:muxsarref[2] 0.00029467
*RES
1 la_data_in[62] *230:9 48.1546 
2 *230:9 *230:11 133.106 
3 *230:11 *653:muxsarref[2] 45.2006 
*END

*D_NET *231 0.154624
*CONN
*P la_data_in[63] I
*I *653:EN_RESVDA I *D CF_ADC_SAR12_sar_refs
*CAP
1 la_data_in[63] 0.000221578
2 *653:EN_RESVDA 0.000502148
3 *231:19 0.0263063
4 *231:17 0.0258041
5 *231:15 0.0103598
6 *231:13 0.019391
7 *231:9 0.00925283
8 *231:13 *241:11 0.00405112
9 *231:13 *242:11 0.00485101
10 *231:13 *243:11 0.00744759
11 *231:13 *244:11 0.00420179
12 *231:13 *268:11 0.00349196
13 *156:13 *231:13 0.0167116
14 *156:19 *231:13 0.00252748
15 *218:13 *231:13 0.00108898
16 *218:15 *231:15 0.0184151
*RES
1 la_data_in[63] *231:9 9.87464 
2 *231:9 *231:13 49.7443 
3 *231:13 *231:15 44.2288 
4 *231:15 *231:17 8 
5 *231:17 *231:19 92.2339 
6 *231:19 *653:EN_RESVDA 33.8129 
*END

*D_NET *232 0.365088
*CONN
*P la_data_in[64] I
*I *654:trimTC[0] I *D CF_BGR
*CAP
1 la_data_in[64] 0.00185268
2 *654:trimTC[0] 0.000653661
3 *232:15 0.0255224
4 *232:13 0.0248688
5 *232:11 0.0325099
6 *232:9 0.0343626
7 *654:trimTC[0] *654:finetune 4.21583e-06
8 *654:trimTC[0] *654:trimTC[1] 0.000105642
9 *654:trimTC[0] *237:15 0
10 *232:15 *237:15 0.122604
11 *232:15 *239:19 0.122604
12 *5:9 *654:trimTC[0] 0
*RES
1 la_data_in[64] *232:9 36.9439 
2 *232:9 *232:11 745.114 
3 *232:11 *232:13 8 
4 *232:13 *232:15 233.485 
5 *232:15 *654:trimTC[0] 26.9053 
*END

*D_NET *233 0.2866
*CONN
*P la_data_in[65] I
*I *654:trimTC[1] I *D CF_BGR
*CAP
1 la_data_in[65] 0.00185268
2 *654:trimTC[1] 0.00194962
3 *233:15 0.0486449
4 *233:13 0.0466953
5 *233:11 0.0306555
6 *233:9 0.0325082
7 *654:trimTC[1] *654:finetune 0.000301561
8 *654:trimTC[1] *654:trimTC[3] 0
9 *654:trimTC[1] *654:trimTC[2] 0
10 *233:15 *234:15 0
11 *233:15 *258:19 0
12 *654:trimTC[0] *654:trimTC[1] 0.000105642
13 *26:13 *233:15 0.00642705
14 *149:15 *233:15 0.117459
*RES
1 la_data_in[65] *233:9 36.9439 
2 *233:9 *233:11 704.265 
3 *233:11 *233:13 8 
4 *233:13 *233:15 236.919 
5 *233:15 *654:trimTC[1] 33.2307 
*END

*D_NET *234 0.295921
*CONN
*P la_data_in[66] I
*I *654:trimTC[2] I *D CF_BGR
*CAP
1 la_data_in[66] 0.00185268
2 *654:trimTC[2] 0.00118651
3 *234:15 0.0477449
4 *234:13 0.0465584
5 *234:11 0.0303243
6 *234:9 0.0321769
7 *654:trimTC[2] *654:trimTC[4] 0.00178843
8 *654:trimTC[2] *654:trimTC[3] 0.00334979
9 *654:trimTC[2] *237:15 0
10 *234:11 *236:15 0
11 *654:trimTC[1] *654:trimTC[2] 0
12 *5:9 *654:trimTC[2] 0
13 *25:17 *234:15 0.130939
14 *26:13 *234:15 0
15 *149:15 *234:15 0
16 *233:15 *234:15 0
*RES
1 la_data_in[66] *234:9 36.9439 
2 *234:9 *234:11 697.222 
3 *234:11 *234:13 8 
4 *234:13 *234:15 241.47 
5 *234:15 *654:trimTC[2] 34.5971 
*END

*D_NET *235 0.242294
*CONN
*P la_data_in[67] I
*I *654:trimTC[3] I *D CF_BGR
*CAP
1 la_data_in[67] 0.00186402
2 *654:trimTC[3] 0.00328747
3 *235:15 0.0668514
4 *235:13 0.0635639
5 *235:11 0.028656
6 *235:9 0.03052
7 *654:trimTC[3] *654:finetune 0
8 *654:trimTC[3] *654:trimTC[4] 0.00104231
9 *235:15 *259:19 0
10 *654:trimTC[2] *654:trimTC[3] 0.00334979
11 *654:trimTC[1] *654:trimTC[3] 0
12 *3:21 *235:15 0
13 *6:9 *235:15 0.043159
*RES
1 la_data_in[67] *235:9 36.9439 
2 *235:9 *235:11 660.599 
3 *235:11 *235:13 8 
4 *235:13 *235:15 244.647 
5 *235:15 *654:trimTC[3] 39.9515 
*END

*D_NET *236 0.300208
*CONN
*P la_data_in[68] I
*I *654:trimTC[4] I *D CF_BGR
*CAP
1 la_data_in[68] 0.00215091
2 *654:trimTC[4] 0.00483502
3 *236:19 0.0535324
4 *236:17 0.0486974
5 *236:15 0.0292089
6 *236:13 0.0313599
7 *654:trimTC[4] *654:trimTC[5] 8.17121e-05
8 *236:13 *262:11 0
9 *236:19 *254:19 0.127511
10 *236:19 *267:15 0
11 *654:trimTC[3] *654:trimTC[4] 0.00104231
12 *654:trimTC[2] *654:trimTC[4] 0.00178843
13 *156:13 *236:13 0
14 *234:11 *236:15 0
*RES
1 la_data_in[68] *236:13 27.424 
2 *236:13 *236:15 670.625 
3 *236:15 *236:17 8 
4 *236:17 *236:19 242.672 
5 *236:19 *654:trimTC[4] 44.7324 
*END

*D_NET *237 0.299321
*CONN
*P la_data_in[69] I
*I *654:trimTC[5] I *D CF_BGR
*CAP
1 la_data_in[69] 0.00177556
2 *654:trimTC[5] 0.000422144
3 *237:15 0.0517066
4 *237:13 0.0512845
5 *237:11 0.0324223
6 *237:9 0.0341978
7 *654:trimTC[5] *654:trimTC[6] 2.20838e-05
8 *237:15 *654:finetune 0
9 *237:15 *239:19 0.0048041
10 *654:trimTC[4] *654:trimTC[5] 8.17121e-05
11 *654:trimTC[2] *237:15 0
12 *654:trimTC[0] *237:15 0
13 *5:9 *654:trimTC[5] 0
14 *150:15 *237:15 0
15 *232:15 *237:15 0.122604
*RES
1 la_data_in[69] *237:9 36.2396 
2 *237:9 *237:11 744.409 
3 *237:11 *237:13 8 
4 *237:13 *237:15 251.946 
5 *237:15 *654:trimTC[5] 10.406 
*END

*D_NET *238 0.108091
*CONN
*P la_data_in[6] I
*I *655:clk1_boostr I *D CF_BUF_HIZ
*CAP
1 la_data_in[6] 4.49146e-05
2 *655:clk1_boostr 0.000217419
3 *238:15 0.0135405
4 *238:13 0.0133231
5 *238:11 0.0290457
6 *238:9 0.0290457
7 *238:7 0.00307532
8 *238:5 0.00312024
9 *238:11 *344:17 0
10 *655:tp *655:clk1_boostr 0.0010425
11 *655:clk2_boost *655:clk1_boostr 3.44405e-05
12 *655:vinp_na *655:clk1_boostr 9.90709e-05
13 *655:e_na_boost *655:clk1_boostr 0.00115724
14 *655:e_n_boost *655:clk1_boostr 1.00758e-05
15 *205:11 *238:11 0
16 *227:15 *238:15 0.0143351
*RES
1 la_data_in[6] *238:5 1.02536 
2 *238:5 *238:7 66.3479 
3 *238:7 *238:9 8 
4 *238:9 *238:11 96.7848 
5 *238:11 *238:13 8 
6 *238:13 *238:15 63.0149 
7 *238:15 *655:clk1_boostr 33.5723 
*END

*D_NET *239 0.300826
*CONN
*P la_data_in[70] I
*I *654:trimTC[6] I *D CF_BGR
*CAP
1 la_data_in[70] 0.00184725
2 *654:trimTC[6] 0.000636081
3 *239:19 0.0523702
4 *239:17 0.0517341
5 *239:15 0.0324803
6 *239:13 0.0343276
7 *239:19 *264:15 0
8 *654:trimTC[5] *654:trimTC[6] 2.20838e-05
9 *150:15 *239:19 0
10 *232:15 *239:19 0.122604
11 *237:15 *239:19 0.0048041
*RES
1 la_data_in[70] *239:13 37.2339 
2 *239:13 *239:15 745.818 
3 *239:15 *239:17 8 
4 *239:17 *239:19 255.896 
5 *239:19 *654:trimTC[6] 10.6113 
*END

*D_NET *240 0.377448
*CONN
*P la_data_in[71] I
*I *654:trimCurr[0] I *D CF_BGR
*CAP
1 la_data_in[71] 0.000762279
2 *654:trimCurr[0] 0.00566891
3 *240:21 0.0432731
4 *240:19 0.147028
5 *240:15 0.110186
6 *654:trimCurr[0] *654:trimCurr[4] 0.0120701
7 *654:trimCurr[0] *654:trimCurr[3] 1.75686e-05
8 *654:trimCurr[0] *654:trimCurr[2] 0.000186425
9 *654:trimCurr[0] *654:trimCurr[1] 0.000129866
10 *654:trimCurr[0] *654:CurrAbsTrim[0] 7.05456e-05
11 *654:trimCurr[0] *654:CurrAbsTrim[1] 0
12 *654:trimCurr[0] *654:pd 0
13 *654:trimCurr[0] *241:33 0
14 *654:trimCurr[0] *242:35 9.59299e-05
15 *654:trimCurr[0] *243:35 0.000175137
16 *240:15 *241:11 0.000121717
17 *240:15 *242:11 0.000121717
18 *240:15 *244:11 0.000105428
19 *240:15 *268:11 0.000105428
20 *240:21 *241:23 0.0321518
21 *240:21 *650:10 0.00463738
22 *2:13 *240:21 0.0162757
23 *5:13 *240:21 0.00373122
24 *156:13 *240:15 0.000533465
*RES
1 la_data_in[71] *240:15 19.6192 
2 *240:15 *240:19 33.8422 
3 *240:19 *240:21 140.317 
4 *240:21 *654:trimCurr[0] 45.2956 
*END

*D_NET *241 0.403637
*CONN
*P la_data_in[72] I
*I *654:trimCurr[1] I *D CF_BGR
*CAP
1 la_data_in[72] 0.000211936
2 *654:trimCurr[1] 0.00062802
3 *241:33 0.00552065
4 *241:23 0.0353728
5 *241:21 0.0304802
6 *241:19 0.0171255
7 *241:17 0.0174495
8 *241:11 0.0161118
9 *241:9 0.0159998
10 *654:trimCurr[1] *654:CurrAbsTrim[5] 0.000137928
11 *654:trimCurr[1] *654:CurrAbsTrim[0] 4.86468e-06
12 *654:trimCurr[1] *654:CurrAbsTrim[1] 8.32053e-05
13 *654:trimCurr[1] *654:CurrAbsTrim[3] 4.15877e-05
14 *654:trimCurr[1] *654:CurrAbsTrim[4] 4.93791e-05
15 *654:trimCurr[1] *654:mux1sel[0] 6.03079e-05
16 *654:trimCurr[1] *654:mux1sel[1] 2.86997e-05
17 *654:trimCurr[1] *654:dft_sel 2.34561e-05
18 *654:trimCurr[1] *247:31 7.03334e-05
19 *654:trimCurr[1] *266:27 4.94439e-05
20 *241:11 *242:11 0.0864108
21 *241:11 *268:11 0.0330636
22 *241:19 *242:19 0.0462269
23 *241:19 *262:11 0.0106199
24 *241:19 *355:25 8.03034e-05
25 *241:33 *654:trimCurr[4] 1.05423e-05
26 *241:33 *654:dft_sel 0.000540403
27 *241:33 *654:inl_ctrl[0] 0.00213085
28 *241:33 *242:35 1.69273e-05
29 *241:33 *243:35 0.00253263
30 *241:33 *248:27 0
31 *241:33 *264:15 0.00367081
32 *654:trimCurr[0] *654:trimCurr[1] 0.000129866
33 *654:trimCurr[0] *241:33 0
34 *156:13 *241:11 0.00284568
35 *156:19 *241:11 0.000664159
36 *193:15 *241:17 0
37 *198:11 *241:11 0.00460733
38 *201:11 *241:19 0.00433733
39 *202:11 *241:11 0.0274766
40 *203:13 *241:11 0.00127063
41 *213:10 *241:11 0.000522028
42 *217:11 *241:11 0.000705861
43 *231:13 *241:11 0.00405112
44 *240:15 *241:11 0.000121717
45 *240:21 *241:23 0.0321518
*RES
1 la_data_in[72] *241:9 16.8229 
2 *241:9 *241:11 943.474 
3 *241:11 *241:17 28.6032 
4 *241:17 *241:19 108.549 
5 *241:19 *241:21 8 
6 *241:21 *241:23 140.19 
7 *241:23 *241:33 49.5509 
8 *241:33 *654:trimCurr[1] 10.4733 
*END

*D_NET *242 0.521096
*CONN
*P la_data_in[73] I
*I *654:trimCurr[2] I *D CF_BGR
*CAP
1 la_data_in[73] 0.000212279
2 *654:trimCurr[2] 8.02235e-05
3 *242:35 0.00301886
4 *242:23 0.0171402
5 *242:21 0.0142015
6 *242:19 0.00858618
7 *242:17 0.00888482
8 *242:11 0.0145568
9 *242:9 0.0144704
10 *654:trimCurr[2] *654:trimCurr[4] 8.32031e-05
11 *654:trimCurr[2] *654:trimCurr[3] 8.37217e-05
12 *654:trimCurr[2] *654:CurrAbsTrim[0] 0
13 *242:11 *244:11 0.0998415
14 *242:11 *268:11 0.000937402
15 *242:19 *243:19 0.0455119
16 *242:19 *262:11 0
17 *242:19 *355:25 0.00080253
18 *242:23 *243:23 0.0589888
19 *242:23 *244:23 0.0589347
20 *242:35 *654:trimCurr[5] 0
21 *242:35 *654:trimCurr[4] 0.0122289
22 *242:35 *654:CurrAbsTrim[0] 8.15458e-05
23 *242:35 *654:inl_ctrl[0] 2.43845e-05
24 *242:35 *654:inl_ctrl[3] 5.06299e-05
25 *242:35 *243:35 0.012373
26 *242:35 *247:31 0
27 *654:trimCurr[0] *654:trimCurr[2] 0.000186425
28 *654:trimCurr[0] *242:35 9.59299e-05
29 *156:13 *242:11 0.00284058
30 *186:11 *242:11 0.000362867
31 *198:11 *242:11 0.00426685
32 *202:11 *242:11 0.00131133
33 *203:13 *242:11 0.00112291
34 *208:15 *242:11 0.000325643
35 *209:11 *242:11 0.00028341
36 *213:10 *242:11 0.000582568
37 *215:11 *242:11 0.000197056
38 *217:11 *242:11 0.000799478
39 *231:13 *242:11 0.00485101
40 *240:15 *242:11 0.000121717
41 *241:11 *242:11 0.0864108
42 *241:19 *242:19 0.0462269
43 *241:33 *242:35 1.69273e-05
*RES
1 la_data_in[73] *242:9 17.2993 
2 *242:9 *242:11 1090.21 
3 *242:11 *242:17 28.2511 
4 *242:17 *242:19 88.284 
5 *242:19 *242:21 8 
6 *242:21 *242:23 139.81 
7 *242:23 *242:35 48.6643 
8 *242:35 *654:trimCurr[2] 11.3195 
*END

*D_NET *243 0.462466
*CONN
*P la_data_in[74] I
*I *654:trimCurr[3] I *D CF_BGR
*CAP
1 la_data_in[74] 0.00012562
2 *654:trimCurr[3] 0.000194435
3 *243:35 0.00375237
4 *243:23 0.0314218
5 *243:21 0.0278639
6 *243:19 0.00778181
7 *243:17 0.00804638
8 *243:11 0.0332544
9 *243:9 0.0331154
10 *654:trimCurr[3] *654:trimCurr[4] 8.53974e-05
11 *654:trimCurr[3] *654:CurrAbsTrim[1] 0
12 *243:9 *244:11 0.000221587
13 *243:11 *244:11 0.103651
14 *243:17 la_data_out[12] 0
15 *243:17 *244:17 8.27472e-05
16 *243:19 *244:19 0.0452783
17 *243:19 *262:11 0
18 *243:19 *355:25 7.35164e-05
19 *243:23 *244:23 2.68463e-05
20 *243:23 *266:15 0.0146425
21 *243:35 *654:CurrAbsTrim[3] 0.000146736
22 *243:35 *654:inl_ctrl[0] 0.00173898
23 *654:trimCurr[2] *654:trimCurr[3] 8.37217e-05
24 *654:trimCurr[0] *654:trimCurr[3] 1.75686e-05
25 *654:trimCurr[0] *243:35 0.000175137
26 *144:9 *243:19 0
27 *156:13 *243:11 0.00489399
28 *186:11 *243:11 0.00108443
29 *198:11 *243:11 0.0115535
30 *203:13 *243:11 0.00178922
31 *208:15 *243:11 0.000522642
32 *209:11 *243:11 0.000442712
33 *213:10 *243:11 0.00136524
34 *215:11 *243:11 0.000334697
35 *217:11 *243:11 0.00184601
36 *231:13 *243:11 0.00744759
37 *241:33 *243:35 0.00253263
38 *242:19 *243:19 0.0455119
39 *242:23 *243:23 0.0589888
40 *242:35 *243:35 0.012373
*RES
1 la_data_in[74] *243:9 17.2993 
2 *243:9 *243:11 1131.66 
3 *243:11 *243:17 28.2511 
4 *243:17 *243:19 84.2483 
5 *243:19 *243:21 8 
6 *243:21 *243:23 140.063 
7 *243:23 *243:35 48.0221 
8 *243:35 *654:trimCurr[3] 41.9202 
*END

*D_NET *244 0.481836
*CONN
*P la_data_in[75] I
*I *654:trimCurr[4] I *D CF_BGR
*CAP
1 la_data_in[75] 0.000107862
2 *654:trimCurr[4] 0.00309543
3 *244:23 0.0308218
4 *244:21 0.0277264
5 *244:19 0.0139374
6 *244:17 0.0141427
7 *244:11 0.0141521
8 *244:9 0.0140547
9 *654:trimCurr[4] *654:CurrAbsTrim[0] 2.03202e-05
10 *654:trimCurr[4] *654:inl_ctrl[0] 3.98606e-05
11 *244:11 *268:11 0.00135025
12 *244:19 la_data_out[1] 9.75158e-06
13 *244:19 *355:25 0.012363
14 *654:trimCurr[3] *654:trimCurr[4] 8.53974e-05
15 *654:trimCurr[2] *654:trimCurr[4] 8.32031e-05
16 *654:trimCurr[0] *654:trimCurr[4] 0.0120701
17 *144:9 *244:19 0
18 *156:13 *244:11 0.00330795
19 *186:11 *244:11 0.000533942
20 *198:11 *244:11 0.00612195
21 *203:13 *244:11 0.000916319
22 *208:15 *244:11 0.000295977
23 *209:11 *244:11 0.00025071
24 *213:10 *244:11 0.00067258
25 *215:11 *244:11 0.000170683
26 *217:11 *244:11 0.000923004
27 *231:13 *244:11 0.00420179
28 *240:15 *244:11 0.000105428
29 *241:33 *654:trimCurr[4] 1.05423e-05
30 *242:11 *244:11 0.0998415
31 *242:23 *244:23 0.0589347
32 *242:35 *654:trimCurr[4] 0.0122289
33 *243:9 *244:11 0.000221587
34 *243:11 *244:11 0.103651
35 *243:17 *244:17 8.27472e-05
36 *243:19 *244:19 0.0452783
37 *243:23 *244:23 2.68463e-05
*RES
1 la_data_in[75] *244:9 16.8229 
2 *244:9 *244:11 1152.15 
3 *244:11 *244:17 27.1946 
4 *244:17 *244:19 83.6472 
5 *244:19 *244:21 8 
6 *244:21 *244:23 139.937 
7 *244:23 *654:trimCurr[4] 43.3794 
*END

*D_NET *245 0.371161
*CONN
*P la_data_in[76] I
*I *654:trimCurr[5] I *D CF_BGR
*CAP
1 la_data_in[76] 0.00176928
2 *654:trimCurr[5] 0.000826364
3 *245:15 0.0607357
4 *245:13 0.0599093
5 *245:11 0.0327706
6 *245:9 0.0345399
7 *654:trimCurr[5] *654:CurrAbsTrim[0] 0.000154365
8 *654:trimCurr[5] *654:CurrAbsTrim[3] 0
9 *654:trimCurr[5] *654:inl_ctrl[0] 0.000624078
10 *654:trimCurr[5] *654:inl_ctrl[3] 6.91288e-05
11 *245:15 *654:inl_ctrl[0] 0
12 *245:15 *247:31 0.00780402
13 *245:15 *248:27 0
14 *245:15 *251:15 0.171958
15 *12:13 *654:trimCurr[5] 0
16 *242:35 *654:trimCurr[5] 0
*RES
1 la_data_in[76] *245:9 36.9439 
2 *245:9 *245:11 752.156 
3 *245:11 *245:13 8 
4 *245:13 *245:15 319.008 
5 *245:15 *654:trimCurr[5] 29.1585 
*END

*D_NET *246 0.518941
*CONN
*P la_data_in[77] I
*I *654:CurrAbsTrim[0] I *D CF_BGR
*CAP
1 la_data_in[77] 0.000985321
2 *654:CurrAbsTrim[0] 0.00138167
3 *246:15 0.0260272
4 *246:13 0.0246456
5 *246:11 0.035857
6 *246:9 0.0368423
7 *654:CurrAbsTrim[0] *654:mux2sel 0.00044774
8 *654:CurrAbsTrim[0] *654:mux1sel[1] 5.17394e-05
9 *654:CurrAbsTrim[0] *654:dft_sel 3.07755e-05
10 *654:CurrAbsTrim[0] *654:pd 0.00013444
11 *654:CurrAbsTrim[0] *654:inl_ctrl[1] 0
12 *654:CurrAbsTrim[0] *654:inl_ctrl[3] 6.42177e-05
13 *654:CurrAbsTrim[0] *247:31 2.27857e-05
14 *654:CurrAbsTrim[0] *248:27 0.000161411
15 *654:CurrAbsTrim[0] *266:27 4.23182e-06
16 *246:11 *247:11 0.160616
17 *246:11 *253:11 0.165315
18 *246:11 *257:11 0.000369255
19 *654:trimCurr[5] *654:CurrAbsTrim[0] 0.000154365
20 *654:trimCurr[4] *654:CurrAbsTrim[0] 2.03202e-05
21 *654:trimCurr[2] *654:CurrAbsTrim[0] 0
22 *654:trimCurr[0] *654:CurrAbsTrim[0] 7.05456e-05
23 *654:trimCurr[1] *654:CurrAbsTrim[0] 4.86468e-06
24 *8:13 *246:15 0.0362493
25 *12:13 *654:CurrAbsTrim[0] 0
26 *194:15 *246:15 0.0294031
27 *242:35 *654:CurrAbsTrim[0] 8.15458e-05
*RES
1 la_data_in[77] *246:9 28.1861 
2 *246:9 *246:11 317.72 
3 *246:11 *246:13 8 
4 *246:13 *246:15 135.875 
5 *246:15 *654:CurrAbsTrim[0] 25.6502 
*END

*D_NET *247 0.490109
*CONN
*P la_data_in[78] I
*I *654:CurrAbsTrim[1] I *D CF_BGR
*CAP
1 la_data_in[78] 0.00103839
2 *654:CurrAbsTrim[1] 7.62137e-05
3 *247:31 0.00330903
4 *247:15 0.0440385
5 *247:13 0.0408057
6 *247:11 0.0345233
7 *247:9 0.0355617
8 *654:CurrAbsTrim[1] *654:CurrAbsTrim[2] 8.32053e-05
9 *654:CurrAbsTrim[1] *654:CurrAbsTrim[3] 2.52103e-05
10 *247:11 *248:11 0.159431
11 *247:11 *253:11 0.000748903
12 *247:31 *654:CurrAbsTrim[5] 1.5888e-05
13 *247:31 *654:CurrAbsTrim[3] 0.000956584
14 *247:31 *654:CurrAbsTrim[4] 0.00080727
15 *247:31 *654:mux2sel 4.11979e-05
16 *247:31 *654:mux1sel[0] 2.13985e-05
17 *247:31 *654:mux1sel[1] 2.79505e-05
18 *247:31 *248:27 0
19 *654:trimCurr[3] *654:CurrAbsTrim[1] 0
20 *654:trimCurr[0] *654:CurrAbsTrim[1] 0
21 *654:trimCurr[1] *654:CurrAbsTrim[1] 8.32053e-05
22 *654:trimCurr[1] *247:31 7.03334e-05
23 *654:CurrAbsTrim[0] *247:31 2.27857e-05
24 *242:35 *247:31 0
25 *245:15 *247:31 0.00780402
26 *246:11 *247:11 0.160616
*RES
1 la_data_in[78] *247:9 27.9582 
2 *247:9 *247:11 309.305 
3 *247:11 *247:13 8 
4 *247:13 *247:15 138.54 
5 *247:15 *247:31 49.4086 
6 *247:31 *654:CurrAbsTrim[1] 2.18536 
*END

*D_NET *248 0.385337
*CONN
*P la_data_in[79] I
*I *654:CurrAbsTrim[2] I *D CF_BGR
*CAP
1 la_data_in[79] 0.00108275
2 *654:CurrAbsTrim[2] 0.000657876
3 *248:27 0.00576997
4 *248:15 0.0461511
5 *248:13 0.041039
6 *248:11 0.0626454
7 *248:9 0.0637282
8 *654:CurrAbsTrim[2] *654:CurrAbsTrim[3] 8.32053e-05
9 *654:CurrAbsTrim[2] *654:dft_sel 0
10 *654:CurrAbsTrim[2] *654:pd 4.07887e-06
11 *248:11 *253:11 0.000491311
12 *248:11 *399:20 0
13 *248:27 *654:dft_sel 0
14 *248:27 *654:pd 0.000423761
15 *248:27 *250:15 0.0034399
16 *654:CurrAbsTrim[0] *248:27 0.000161411
17 *654:CurrAbsTrim[1] *654:CurrAbsTrim[2] 8.32053e-05
18 *8:13 *248:27 0.00014437
19 *157:11 *248:11 0
20 *241:33 *248:27 0
21 *245:15 *248:27 0
22 *247:11 *248:11 0.159431
23 *247:31 *248:27 0
*RES
1 la_data_in[79] *248:9 28.6625 
2 *248:9 *248:11 307.416 
3 *248:11 *248:13 8 
4 *248:13 *248:15 139.556 
5 *248:15 *248:27 45.7971 
6 *248:27 *654:CurrAbsTrim[2] 49.1598 
*END

*D_NET *250 0.265609
*CONN
*P la_data_in[80] I
*I *654:CurrAbsTrim[3] I *D CF_BGR
*CAP
1 la_data_in[80] 0.0017639
2 *654:CurrAbsTrim[3] 0.0011527
3 *250:15 0.0955237
4 *250:13 0.094371
5 *250:11 0.0331701
6 *250:9 0.034934
7 *654:CurrAbsTrim[3] *654:CurrAbsTrim[4] 0
8 *654:trimCurr[5] *654:CurrAbsTrim[3] 0
9 *654:trimCurr[1] *654:CurrAbsTrim[3] 4.15877e-05
10 *654:CurrAbsTrim[1] *654:CurrAbsTrim[3] 2.52103e-05
11 *654:CurrAbsTrim[2] *654:CurrAbsTrim[3] 8.32053e-05
12 *243:35 *654:CurrAbsTrim[3] 0.000146736
13 *247:31 *654:CurrAbsTrim[3] 0.000956584
14 *248:27 *250:15 0.0034399
*RES
1 la_data_in[80] *250:9 36.9439 
2 *250:9 *250:11 761.312 
3 *250:11 *250:13 8 
4 *250:13 *250:15 330.6 
5 *250:15 *654:CurrAbsTrim[3] 29.4337 
*END

*D_NET *251 0.488553
*CONN
*P la_data_in[81] I
*I *654:CurrAbsTrim[4] I *D CF_BGR
*CAP
1 la_data_in[81] 0.0017649
2 *654:CurrAbsTrim[4] 0.000860461
3 *251:15 0.0321106
4 *251:13 0.0312501
5 *251:11 0.0335769
6 *251:9 0.0353418
7 *654:CurrAbsTrim[4] *654:CurrAbsTrim[5] 0.000147086
8 *654:CurrAbsTrim[4] *654:mux1sel[0] 4.93791e-05
9 *654:CurrAbsTrim[4] *654:dft_sel 6.51246e-05
10 *251:15 *654:inl_ctrl[0] 4.84403e-05
11 *251:15 *264:15 0.180523
12 *654:trimCurr[1] *654:CurrAbsTrim[4] 4.93791e-05
13 *654:CurrAbsTrim[3] *654:CurrAbsTrim[4] 0
14 *245:15 *251:15 0.171958
15 *247:31 *654:CurrAbsTrim[4] 0.00080727
*RES
1 la_data_in[81] *251:9 36.9439 
2 *251:9 *251:11 751.452 
3 *251:11 *251:13 8 
4 *251:13 *251:15 333.519 
5 *251:15 *654:CurrAbsTrim[4] 29.3603 
*END

*D_NET *252 0.407399
*CONN
*P la_data_in[82] I
*I *654:CurrAbsTrim[5] I *D CF_BGR
*CAP
1 la_data_in[82] 0.000833999
2 *654:CurrAbsTrim[5] 0.00174733
3 *252:19 0.0597752
4 *252:17 0.0580279
5 *252:15 0.0313551
6 *252:13 0.0321891
7 *654:CurrAbsTrim[5] *654:mux2sel 9.18401e-05
8 *654:CurrAbsTrim[5] *654:mux1sel[0] 0.00393764
9 *654:CurrAbsTrim[5] *654:dft_sel 2.28446e-05
10 *654:CurrAbsTrim[5] *266:27 0.000430871
11 *252:13 *262:11 0
12 *654:trimCurr[1] *654:CurrAbsTrim[5] 0.000137928
13 *654:CurrAbsTrim[4] *654:CurrAbsTrim[5] 0.000147086
14 *18:21 *252:19 0.0151721
15 *23:13 *252:19 0.0264673
16 *25:17 *252:19 0
17 *29:9 *252:19 0.177047
18 *156:13 *252:13 0
19 *247:31 *654:CurrAbsTrim[5] 1.5888e-05
*RES
1 la_data_in[82] *252:13 23.56 
2 *252:13 *252:15 719.925 
3 *252:15 *252:17 8 
4 *252:17 *252:19 334.807 
5 *252:19 *654:CurrAbsTrim[5] 34.8247 
*END

*D_NET *253 0.513724
*CONN
*P la_data_in[83] I
*I *654:inl_ctrl[0] I *D CF_BGR
*CAP
1 la_data_in[83] 0.000967379
2 *654:inl_ctrl[0] 0.00222077
3 *253:15 0.0372086
4 *253:13 0.0349879
5 *253:11 0.038553
6 *253:9 0.0395204
7 *654:inl_ctrl[0] *654:inl_ctrl[1] 0.000113347
8 *654:inl_ctrl[0] *654:inl_ctrl[3] 0.000131999
9 *654:inl_ctrl[0] *264:15 1.69273e-05
10 *253:11 *257:11 0.004356
11 *253:11 *266:11 0.166663
12 *253:15 *268:23 0.00594023
13 *654:trimCurr[5] *654:inl_ctrl[0] 0.000624078
14 *654:trimCurr[4] *654:inl_ctrl[0] 3.98606e-05
15 *3:25 *253:15 0
16 *12:13 *654:inl_ctrl[0] 0
17 *22:17 *253:15 0.011882
18 *157:11 *253:11 0
19 *241:33 *654:inl_ctrl[0] 0.00213085
20 *242:35 *654:inl_ctrl[0] 2.43845e-05
21 *243:35 *654:inl_ctrl[0] 0.00173898
22 *245:15 *654:inl_ctrl[0] 0
23 *246:11 *253:11 0.165315
24 *247:11 *253:11 0.000748903
25 *248:11 *253:11 0.000491311
26 *251:15 *654:inl_ctrl[0] 4.84403e-05
*RES
1 la_data_in[83] *253:9 26.5496 
2 *253:9 *253:11 334.721 
3 *253:11 *253:13 8 
4 *253:13 *253:15 137.779 
5 *253:15 *654:inl_ctrl[0] 44.2792 
*END

*D_NET *254 0.485308
*CONN
*P la_data_in[84] I
*I *654:inl_ctrl[1] I *D CF_BGR
*CAP
1 la_data_in[84] 0.00171248
2 *654:inl_ctrl[1] 0.00238922
3 *254:19 0.0499889
4 *254:17 0.0475997
5 *254:15 0.0284759
6 *254:13 0.0301884
7 *654:inl_ctrl[1] *654:inl_ctrl[6] 4.93791e-05
8 *654:inl_ctrl[1] *654:inl_ctrl[5] 1.92555e-05
9 *654:inl_ctrl[1] *654:inl_ctrl[3] 5.91149e-05
10 *654:inl_ctrl[1] *654:inl_ctrl[2] 0.008959
11 *654:inl_ctrl[1] *257:15 0.00756643
12 *654:inl_ctrl[1] *257:27 0.000152177
13 *254:19 *256:15 0
14 *254:19 *263:15 0.180524
15 *254:19 *267:15 0
16 *654:CurrAbsTrim[0] *654:inl_ctrl[1] 0
17 *654:inl_ctrl[0] *654:inl_ctrl[1] 0.000113347
18 *236:19 *254:19 0.127511
*RES
1 la_data_in[84] *254:13 37.2339 
2 *254:13 *254:15 640.175 
3 *254:15 *254:17 8 
4 *254:17 *254:19 348.46 
5 *254:19 *654:inl_ctrl[1] 47.4806 
*END

*D_NET *255 0.420977
*CONN
*P la_data_in[85] I
*I *654:inl_ctrl[2] I *D CF_BGR
*CAP
1 la_data_in[85] 0.00171699
2 *654:inl_ctrl[2] 0.0045637
3 *255:15 0.0600704
4 *255:13 0.0555067
5 *255:11 0.027383
6 *255:9 0.0291
7 *654:inl_ctrl[2] *654:inl_ctrl[6] 0
8 *654:inl_ctrl[2] *654:inl_ctrl[3] 7.92712e-05
9 *654:inl_ctrl[2] *257:15 0.000267533
10 *255:15 *256:15 0.188301
11 *654:inl_ctrl[1] *654:inl_ctrl[2] 0.008959
12 *12:13 *654:inl_ctrl[2] 0
13 *178:27 *255:15 0
14 *179:27 *255:15 3.99169e-05
15 *210:17 *255:15 0.0436021
16 *212:19 *255:15 0.00134301
17 *214:17 *255:15 4.46405e-05
*RES
1 la_data_in[85] *255:9 36.9439 
2 *255:9 *255:11 632.428 
3 *255:11 *255:13 8 
4 *255:13 *255:15 351.895 
5 *255:15 *654:inl_ctrl[2] 49.6022 
*END

*D_NET *256 0.430046
*CONN
*P la_data_in[86] I
*I *654:inl_ctrl[3] I *D CF_BGR
*CAP
1 la_data_in[86] 0.00171699
2 *654:inl_ctrl[3] 0.00558288
3 *256:15 0.059203
4 *256:13 0.0536201
5 *256:11 0.0274139
6 *256:9 0.0291309
7 *654:inl_ctrl[3] *654:mux2sel 0.00259013
8 *654:inl_ctrl[3] *654:inl_ctrl[5] 3.11051e-06
9 *654:inl_ctrl[3] *654:inl_ctrl[4] 7.55189e-05
10 *654:inl_ctrl[3] *262:15 3.72184e-05
11 *256:15 *263:15 0
12 *654:trimCurr[5] *654:inl_ctrl[3] 6.91288e-05
13 *654:CurrAbsTrim[0] *654:inl_ctrl[3] 6.42177e-05
14 *654:inl_ctrl[0] *654:inl_ctrl[3] 0.000131999
15 *654:inl_ctrl[1] *654:inl_ctrl[3] 5.91149e-05
16 *654:inl_ctrl[2] *654:inl_ctrl[3] 7.92712e-05
17 *4:21 *256:15 0.0509282
18 *213:16 *256:15 0.0109893
19 *242:35 *654:inl_ctrl[3] 5.06299e-05
20 *254:19 *256:15 0
21 *255:15 *256:15 0.188301
*RES
1 la_data_in[86] *256:9 36.9439 
2 *256:9 *256:11 633.132 
3 *256:11 *256:13 8 
4 *256:13 *256:15 350.95 
5 *256:15 *654:inl_ctrl[3] 46.9795 
*END

*D_NET *257 0.488824
*CONN
*P la_data_in[87] I
*I *654:inl_ctrl[4] I *D CF_BGR
*CAP
1 la_data_in[87] 0.000827789
2 *654:inl_ctrl[4] 2.82632e-05
3 *257:27 0.000612317
4 *257:15 0.0384989
5 *257:13 0.0379148
6 *257:11 0.0527855
7 *257:9 0.0536133
8 *654:inl_ctrl[4] *654:inl_ctrl[5] 7.60186e-05
9 *257:9 *268:11 0.000230017
10 *257:11 *262:11 0
11 *257:11 *266:11 0.173611
12 *257:11 *283:31 0.000136953
13 *257:15 *654:inl_ctrl[6] 0
14 *257:15 *654:inl_ctrl[5] 0
15 *654:inl_ctrl[1] *257:15 0.00756643
16 *654:inl_ctrl[1] *257:27 0.000152177
17 *654:inl_ctrl[3] *654:inl_ctrl[4] 7.55189e-05
18 *654:inl_ctrl[2] *257:15 0.000267533
19 *164:11 *257:11 0.0858833
20 *176:13 *257:11 0.000597201
21 *183:11 *257:11 0.0312225
22 *190:13 *257:11 0
23 *221:11 *257:11 0
24 *246:11 *257:11 0.000369255
25 *253:11 *257:11 0.004356
*RES
1 la_data_in[87] *257:9 25.6175 
2 *257:9 *257:11 357.905 
3 *257:11 *257:13 8 
4 *257:13 *257:15 136.763 
5 *257:15 *257:27 39.6638 
6 *257:27 *654:inl_ctrl[4] 16.305 
*END

*D_NET *258 0.39876
*CONN
*P la_data_in[88] I
*I *654:inl_ctrl[5] I *D CF_BGR
*CAP
1 la_data_in[88] 0.000538241
2 *654:inl_ctrl[5] 0.0018683
3 *258:19 0.0739387
4 *258:17 0.0720704
5 *258:15 0.0321775
6 *258:13 0.0327157
7 *654:inl_ctrl[5] *654:inl_ctrl[6] 0.00229641
8 *258:13 *262:11 5.51231e-05
9 *258:13 *268:11 0.000230017
10 *654:inl_ctrl[1] *654:inl_ctrl[5] 1.92555e-05
11 *654:inl_ctrl[3] *654:inl_ctrl[5] 3.11051e-06
12 *654:inl_ctrl[4] *654:inl_ctrl[5] 7.60186e-05
13 *24:13 *258:19 0.0302483
14 *26:13 *258:19 0
15 *149:15 *258:19 0
16 *151:15 *258:19 0.152522
17 *156:13 *258:13 0
18 *233:15 *258:19 0
19 *257:15 *654:inl_ctrl[5] 0
*RES
1 la_data_in[88] *258:13 23.7103 
2 *258:13 *258:15 739.645 
3 *258:15 *258:17 8 
4 *258:17 *258:19 358.85 
5 *258:19 *654:inl_ctrl[5] 30.9485 
*END

*D_NET *259 0.366884
*CONN
*P la_data_in[89] I
*I *654:inl_ctrl[6] I *D CF_BGR
*CAP
1 la_data_in[89] 0.000833999
2 *654:inl_ctrl[6] 0.0045994
3 *259:19 0.0892034
4 *259:17 0.084604
5 *259:15 0.0296693
6 *259:13 0.0305033
7 *259:13 *262:11 0
8 *259:19 *267:15 0
9 *654:inl_ctrl[1] *654:inl_ctrl[6] 4.93791e-05
10 *654:inl_ctrl[5] *654:inl_ctrl[6] 0.00229641
11 *654:inl_ctrl[2] *654:inl_ctrl[6] 0
12 *3:21 *259:19 0.125125
13 *156:13 *259:13 0
14 *235:15 *259:19 0
15 *257:15 *654:inl_ctrl[6] 0
*RES
1 la_data_in[89] *259:13 23.56 
2 *259:13 *259:15 683.302 
3 *259:15 *259:17 8 
4 *259:17 *259:19 361.426 
5 *259:19 *654:inl_ctrl[6] 42.3285 
*END

*D_NET *260 0.130603
*CONN
*P la_data_in[8] I
*I *653:pd I *D CF_ADC_SAR12_sar_refs
*I *652:pd I *D CF_ADC_SAR12
*CAP
1 la_data_in[8] 0.0100153
2 *653:pd 2.73691e-05
3 *652:pd 3.56801e-05
4 *260:51 0.00924224
5 *260:41 0.00576201
6 *260:25 0.029048
7 *260:23 0.0275203
8 *260:15 0.0134134
9 *260:13 0.0100153
10 *652:pd *652:pd_ana 3.77951e-05
11 *653:pd *653:pd_ana 5.98288e-05
12 *260:13 *355:25 4.83736e-05
13 *260:41 *652:refclk 0.00164923
14 *260:51 *271:19 0.000746433
15 *260:51 *271:49 0.0221278
16 *652:cap_trim[1] *260:41 2.38218e-05
17 *653:hiz *653:pd 8.24233e-05
18 *20:23 *260:41 0.000312562
19 *203:23 *260:41 0
20 *208:21 *260:41 0.000435476
*RES
1 la_data_in[8] *260:13 46.8006 
2 *260:13 *260:15 8 
3 *260:15 *260:23 23.2731 
4 *260:23 *260:25 81.1664 
5 *260:25 *260:41 46.0015 
6 *260:41 *652:pd 8.77679 
7 *260:15 *260:51 44.492 
8 *260:51 *653:pd 9.33607 
*END

*D_NET *261 0.306226
*CONN
*P la_data_in[90] I
*I *654:mux1sel[0] I *D CF_BGR
*CAP
1 la_data_in[90] 0.000576981
2 *654:mux1sel[0] 0.00160081
3 *261:19 0.103764
4 *261:17 0.102163
5 *261:15 0.030649
6 *261:13 0.031226
7 *654:mux1sel[0] *654:mux2sel 0.000153131
8 *654:mux1sel[0] *654:mux1sel[1] 0.000491738
9 *654:mux1sel[0] *262:15 0.00487611
10 *654:mux1sel[0] *266:27 0
11 *261:13 *262:11 0
12 *261:19 *268:19 0
13 *654:CurrAbsTrim[5] *654:mux1sel[0] 0.00393764
14 *654:trimCurr[1] *654:mux1sel[0] 6.03079e-05
15 *654:CurrAbsTrim[4] *654:mux1sel[0] 4.93791e-05
16 *7:17 *261:19 0.0265435
17 *20:15 *261:19 0
18 *152:15 *261:19 0
19 *156:13 *261:13 0.000113183
20 *247:31 *654:mux1sel[0] 2.13985e-05
*RES
1 la_data_in[90] *261:13 22.2546 
2 *261:13 *261:15 705.839 
3 *261:15 *261:17 8 
4 *261:17 *261:19 362.027 
5 *261:19 *654:mux1sel[0] 38.9139 
*END

*D_NET *262 0.38016
*CONN
*P la_data_in[91] I
*I *654:mux1sel[1] I *D CF_BGR
*CAP
1 la_data_in[91] 0.000525693
2 *654:mux1sel[1] 0.000251753
3 *262:15 0.0375959
4 *262:13 0.0373442
5 *262:11 0.0813751
6 *262:9 0.0819007
7 *654:mux1sel[1] *654:mux2sel 0.000385202
8 *654:mux1sel[1] *654:dft_sel 0.000201038
9 *262:11 *283:31 0
10 *262:15 *654:mux2sel 0.00753899
11 *262:15 *266:27 0
12 *654:trimCurr[1] *654:mux1sel[1] 2.86997e-05
13 *654:CurrAbsTrim[0] *654:mux1sel[1] 5.17394e-05
14 *654:mux1sel[0] *654:mux1sel[1] 0.000491738
15 *654:mux1sel[0] *262:15 0.00487611
16 *654:inl_ctrl[3] *262:15 3.72184e-05
17 *153:11 *262:11 0.0804782
18 *176:13 *262:11 0.000212807
19 *183:11 *262:11 0
20 *190:13 *262:11 0.0219926
21 *201:11 *262:11 0
22 *221:11 *262:11 0.0141696
23 *236:13 *262:11 0
24 *241:19 *262:11 0.0106199
25 *242:19 *262:11 0
26 *243:19 *262:11 0
27 *247:31 *654:mux1sel[1] 2.79505e-05
28 *252:13 *262:11 0
29 *257:11 *262:11 0
30 *258:13 *262:11 5.51231e-05
31 *259:13 *262:11 0
32 *261:13 *262:11 0
*RES
1 la_data_in[91] *262:9 19.0304 
2 *262:9 *262:11 367.007 
3 *262:11 *262:13 8 
4 *262:13 *262:15 137.779 
5 *262:15 *654:mux1sel[1] 20.1757 
*END

*D_NET *263 0.417837
*CONN
*P la_data_in[92] I
*I *654:mux2sel I *D CF_BGR
*CAP
1 la_data_in[92] 0.00169254
2 *654:mux2sel 0.00276207
3 *263:15 0.0720541
4 *263:13 0.069292
5 *263:11 0.0276778
6 *263:9 0.0293704
7 *263:15 *267:15 0
8 *654:CurrAbsTrim[5] *654:mux2sel 9.18401e-05
9 *654:CurrAbsTrim[0] *654:mux2sel 0.00044774
10 *654:mux1sel[0] *654:mux2sel 0.000153131
11 *654:mux1sel[1] *654:mux2sel 0.000385202
12 *654:inl_ctrl[3] *654:mux2sel 0.00259013
13 *4:21 *263:15 0
14 *211:17 *263:15 0.0231377
15 *213:16 *263:15 7.85489e-05
16 *247:31 *654:mux2sel 4.11979e-05
17 *254:19 *263:15 0.180524
18 *256:15 *263:15 0
19 *262:15 *654:mux2sel 0.00753899
*RES
1 la_data_in[92] *263:9 36.9439 
2 *263:9 *263:11 639.471 
3 *263:11 *263:13 8 
4 *263:13 *263:15 370.27 
5 *263:15 *654:mux2sel 46.893 
*END

*D_NET *264 0.403131
*CONN
*P la_data_in[93] I
*I *654:dft_sel I *D CF_BGR
*CAP
1 la_data_in[93] 0.00169254
2 *654:dft_sel 0.000868843
3 *264:15 0.0746338
4 *264:13 0.073765
5 *264:11 0.0325772
6 *264:9 0.0342697
7 *654:dft_sel *654:pd_ibg 0.000123322
8 *654:dft_sel *266:27 0.00010617
9 *654:CurrAbsTrim[5] *654:dft_sel 2.28446e-05
10 *654:trimCurr[1] *654:dft_sel 2.34561e-05
11 *654:CurrAbsTrim[0] *654:dft_sel 3.07755e-05
12 *654:CurrAbsTrim[2] *654:dft_sel 0
13 *654:CurrAbsTrim[4] *654:dft_sel 6.51246e-05
14 *654:mux1sel[1] *654:dft_sel 0.000201038
15 *654:inl_ctrl[0] *264:15 1.69273e-05
16 *239:19 *264:15 0
17 *241:33 *654:dft_sel 0.000540403
18 *241:33 *264:15 0.00367081
19 *248:27 *654:dft_sel 0
20 *251:15 *264:15 0.180523
*RES
1 la_data_in[93] *264:9 36.9439 
2 *264:9 *264:11 750.748 
3 *264:11 *264:13 8 
4 *264:13 *264:15 372.589 
5 *264:15 *654:dft_sel 29.3996 
*END

*D_NET *265 0.457215
*CONN
*P la_data_in[94] I
*I *654:pd I *D CF_BGR
*CAP
1 la_data_in[94] 0.00124373
2 *654:pd 0.00148549
3 *265:23 0.166226
4 *265:15 0.206421
5 *265:13 0.0429241
6 *654:pd *654:pd_ibg 0.000110607
7 *265:23 *268:23 8.27559e-06
8 *654:trimCurr[0] *654:pd 0
9 *654:CurrAbsTrim[0] *654:pd 0.00013444
10 *654:CurrAbsTrim[2] *654:pd 4.07887e-06
11 *5:9 *265:23 0.00725433
12 *150:15 *265:23 0.0309287
13 *157:11 *265:13 5.10545e-05
14 *248:27 *654:pd 0.000423761
*RES
1 la_data_in[94] *265:13 41.215 
2 *265:13 *265:15 135.367 
3 *265:15 *265:23 46.4232 
4 *265:23 *654:pd 23.6396 
*END

*D_NET *266 0.534989
*CONN
*P la_data_in[95] I
*I *654:pd_ibg I *D CF_BGR
*CAP
1 la_data_in[95] 0.00083396
2 *654:pd_ibg 3.80351e-05
3 *266:27 0.0120654
4 *266:21 0.0185656
5 *266:15 0.0294899
6 *266:13 0.0229517
7 *266:11 0.0437169
8 *266:9 0.0445509
9 *266:9 *268:11 0.000230017
10 *654:CurrAbsTrim[5] *266:27 0.000430871
11 *654:trimCurr[1] *266:27 4.94439e-05
12 *654:CurrAbsTrim[0] *266:27 4.23182e-06
13 *654:mux1sel[0] *266:27 0
14 *654:dft_sel *654:pd_ibg 0.000123322
15 *654:dft_sel *266:27 0.00010617
16 *654:pd *654:pd_ibg 0.000110607
17 *8:13 *266:27 0
18 *11:15 *266:21 0
19 *157:11 *266:11 0
20 *164:11 *266:11 0.00680636
21 *243:23 *266:15 0.0146425
22 *253:11 *266:11 0.166663
23 *257:11 *266:11 0.173611
24 *262:15 *266:27 0
*RES
1 la_data_in[95] *266:9 26.3218 
2 *266:9 *266:11 357.605 
3 *266:11 *266:13 8 
4 *266:13 *266:15 528.359 
5 *266:15 *266:21 37.1363 
6 *266:21 *266:27 49.5445 
7 *266:27 *654:pd_ibg 9.48107 
*END

*D_NET *267 0.271606
*CONN
*P la_data_in[96] I
*I *654:finetune I *D CF_BGR
*CAP
1 la_data_in[96] 0.00167237
2 *654:finetune 0.00530612
3 *267:15 0.105995
4 *267:13 0.100689
5 *267:11 0.0279829
6 *267:9 0.0296553
7 *654:trimTC[3] *654:finetune 0
8 *654:trimTC[0] *654:finetune 4.21583e-06
9 *654:trimTC[1] *654:finetune 0.000301561
10 *5:9 *654:finetune 0
11 *236:19 *267:15 0
12 *237:15 *654:finetune 0
13 *254:19 *267:15 0
14 *259:19 *267:15 0
15 *263:15 *267:15 0
*RES
1 la_data_in[96] *267:9 36.2396 
2 *267:9 *267:11 646.514 
3 *267:11 *267:13 8 
4 *267:13 *267:15 338.843 
5 *267:15 *654:finetune 42.6264 
*END

*D_NET *268 0.451038
*CONN
*P la_data_in[97] I
*I *654:en_startb I *D CF_BGR
*CAP
1 la_data_in[97] 9.20081e-05
2 *654:en_startb 0.00017842
3 *268:23 0.0189892
4 *268:21 0.0188107
5 *268:19 0.0454188
6 *268:17 0.0454188
7 *268:15 0.0308198
8 *268:13 0.0308198
9 *268:11 0.031748
10 *268:9 0.03184
11 *20:15 *268:19 0.03198
12 *22:17 *268:23 0.00432592
13 *152:15 *268:19 0.0936674
14 *156:13 *268:11 0.0212272
15 *219:11 *268:15 0
16 *230:9 *268:11 0.000115009
17 *231:13 *268:11 0.00349196
18 *240:15 *268:11 0.000105428
19 *241:11 *268:11 0.0330636
20 *242:11 *268:11 0.000937402
21 *244:11 *268:11 0.00135025
22 *253:15 *268:23 0.00594023
23 *257:9 *268:11 0.000230017
24 *258:13 *268:11 0.000230017
25 *261:19 *268:19 0
26 *265:23 *268:23 8.27559e-06
27 *266:9 *268:11 0.000230017
*RES
1 la_data_in[97] *268:9 16.8229 
2 *268:9 *268:11 820.555 
3 *268:11 *268:13 15 
4 *268:13 *268:15 703.198 
5 *268:15 *268:17 8 
6 *268:17 *268:19 233.055 
7 *268:19 *268:21 8 
8 *268:21 *268:23 71.2656 
9 *268:23 *654:en_startb 32.7975 
*END

*D_NET *271 0.138208
*CONN
*P la_data_in[9] I
*I *653:pd_ana I *D CF_ADC_SAR12_sar_refs
*I *652:pd_ana I *D CF_ADC_SAR12
*CAP
1 la_data_in[9] 0.0101395
2 *653:pd_ana 2.94861e-05
3 *652:pd_ana 0.00182245
4 *271:49 0.00640073
5 *271:27 0.010718
6 *271:21 0.0345888
7 *271:19 0.0260882
8 *271:15 0.00676617
9 *271:13 0.0101395
10 *652:pd_ana *652:refclk 0
11 *271:13 *355:25 1.40476e-05
12 *652:cap_trim[1] *652:pd_ana 0.000427238
13 *652:pd *652:pd_ana 3.77951e-05
14 *652:dft_outc[0] *652:pd_ana 3.77951e-05
15 *653:pd *653:pd_ana 5.98288e-05
16 *653:hiz *271:49 0.00609732
17 *176:19 *271:49 0.0016976
18 *206:33 *652:pd_ana 4.58557e-05
19 *208:21 *652:pd_ana 0.00020201
20 *209:47 *652:pd_ana 2.10583e-05
21 *260:51 *271:19 0.000746433
22 *260:51 *271:49 0.0221278
*RES
1 la_data_in[9] *271:13 46.7558 
2 *271:13 *271:15 8 
3 *271:15 *271:19 9.42987 
4 *271:19 *271:21 84.0859 
5 *271:21 *271:27 48.3419 
6 *271:27 *652:pd_ana 22.3979 
7 *271:15 *271:49 49.4198 
8 *271:49 *653:pd_ana 1.02536 
*END

*D_NET *272 0.172421
*CONN
*P la_data_out[0] O
*I *652:data_out[0] O *D CF_ADC_SAR12
*CAP
1 la_data_out[0] 4.49146e-05
2 *652:data_out[0] 0.000510732
3 *272:41 0.00395388
4 *272:39 0.00442384
5 *272:33 0.0120408
6 *272:31 0.0115259
7 *272:29 0.00658446
8 *272:27 0.00730778
9 *272:13 0.00123405
10 *272:13 *283:15 2.11066e-05
11 *272:13 *303:15 3.77362e-05
12 *272:13 *311:11 5.08285e-05
13 *272:13 *322:17 0.000481477
14 *272:13 *377:11 3.35885e-06
15 *272:13 *388:13 6.95627e-06
16 *272:27 *303:15 0.000626835
17 *272:27 *388:13 4.1318e-05
18 *272:29 *333:25 0.043543
19 *272:33 *322:29 0.0257328
20 *272:33 *377:23 0
21 *652:iso_en *272:27 0.000427228
22 *155:21 *272:29 0.00865012
23 *175:15 *272:29 0.0439609
24 *178:23 *272:29 8.76702e-05
25 *179:19 *272:13 3.04931e-05
26 *199:17 *272:27 2.2465e-05
27 *208:21 *272:27 0.0010707
28 *216:15 *272:33 0
*RES
1 *652:data_out[0] *272:13 42.1386 
2 *272:13 *272:27 20.7413 
3 *272:27 *272:29 559.348 
4 *272:29 *272:31 8 
5 *272:31 *272:33 55.6117 
6 *272:33 *272:39 19.6207 
7 *272:39 *272:41 84.8457 
8 *272:41 la_data_out[0] 1.02536 
*END

*D_NET *283 0.132712
*CONN
*P la_data_out[10] O
*I *652:data_out[10] O *D CF_ADC_SAR12
*CAP
1 la_data_out[10] 0.000772367
2 *652:data_out[10] 0.000690337
3 *283:31 0.00864845
4 *283:23 0.0149607
5 *283:17 0.0131757
6 *283:15 0.00678142
7 *283:15 *294:15 6.91008e-05
8 *283:15 *322:17 4.30894e-05
9 *283:15 *322:23 0.00297678
10 *283:15 *377:11 0
11 *283:15 *388:13 1.63502e-05
12 *283:17 *322:25 0.0397181
13 *652:test_scanen *283:15 0.000377261
14 *652:hiz *283:15 1.36509e-05
15 *652:sof *283:15 2.17681e-05
16 *15:15 *283:17 0.00176047
17 *176:23 *283:17 0.0385644
18 *193:19 *283:15 0.000416411
19 *198:19 *283:31 0
20 *202:19 *283:15 0.00048075
21 *208:21 *283:15 0.00306724
22 *257:11 *283:31 0.000136953
23 *262:11 *283:31 0
24 *272:13 *283:15 2.11066e-05
*RES
1 *652:data_out[10] *283:15 24.2111 
2 *283:15 *283:17 505.118 
3 *283:17 *283:23 39.884 
4 *283:23 *283:31 40.9517 
5 *283:31 la_data_out[10] 15.9604 
*END

*D_NET *294 0.0924923
*CONN
*P la_data_out[11] O
*I *652:data_out[11] O *D CF_ADC_SAR12
*CAP
1 la_data_out[11] 0.000127837
2 *652:data_out[11] 0.0017947
3 *294:17 0.0356202
4 *294:15 0.037287
5 la_data_out[11] *355:25 1.1377e-05
6 *294:15 *322:17 8.81675e-05
7 *652:test_scanen *294:15 0.000605071
8 *652:iso_en *294:15 3.94779e-05
9 *652:next *294:15 4.33741e-06
10 *155:19 la_data_out[11] 5.10545e-05
11 *178:27 *294:15 0.00817353
12 *179:27 *294:15 0.00586284
13 *186:25 *294:15 0.00224835
14 *195:41 *294:15 0.000352154
15 *209:47 *294:15 0.000123642
16 *214:17 *294:15 3.34501e-05
17 *283:15 *294:15 6.91008e-05
*RES
1 *652:data_out[11] *294:15 39.3876 
2 *294:15 *294:17 119.373 
3 *294:17 la_data_out[11] 17.9736 
*END

*D_NET *303 0.128371
*CONN
*P la_data_out[12] O
*I *652:eof O *D CF_ADC_SAR12
*CAP
1 la_data_out[12] 0.00174866
2 *652:eof 0.00121918
3 *303:17 0.0199254
4 *303:15 0.0193959
5 la_data_out[12] *355:25 0.00453693
6 *303:15 *333:23 0.000107127
7 *303:15 *344:11 9.75158e-06
8 *303:15 *388:13 0.000110803
9 *652:reset_n *303:15 8.56184e-06
10 *155:21 *303:17 0.015671
11 *175:13 la_data_out[12] 0.00845626
12 *175:15 *303:17 0.0510993
13 *199:17 *303:15 0.00312657
14 *201:11 la_data_out[12] 0.00209349
15 *208:21 *303:15 0.000197828
16 *243:17 la_data_out[12] 0
17 *272:13 *303:15 3.77362e-05
18 *272:27 *303:15 0.000626835
*RES
1 *652:eof *303:15 23.5491 
2 *303:15 *303:17 650.905 
3 *303:17 la_data_out[12] 35.5025 
*END

*D_NET *311 0.119549
*CONN
*P la_data_out[1] O
*I *652:data_out[1] O *D CF_ADC_SAR12
*CAP
1 la_data_out[1] 0.000107821
2 *652:data_out[1] 0.000389088
3 *311:17 0.0352831
4 *311:15 0.0351753
5 *311:13 0.00478841
6 *311:11 0.00517749
7 *311:11 *322:17 9.55068e-05
8 *311:11 *333:23 1.69822e-05
9 *652:sample_width[1] *311:13 2.67626e-06
10 *652:scan_test_mode *311:13 0.00171041
11 *652:test_scanen *311:13 0.00021125
12 *652:hiz *311:13 0.000424019
13 *178:27 *311:13 0.0126304
14 *186:25 *311:13 0.000484076
15 *191:31 *311:13 0.00135278
16 *197:19 *311:13 0.00086134
17 *202:27 *311:13 0.0200314
18 *206:25 *311:13 0.000746066
19 *244:19 la_data_out[1] 9.75158e-06
20 *272:13 *311:11 5.08285e-05
*RES
1 *652:data_out[1] *311:11 14.09 
2 *311:11 *311:13 46.1235 
3 *311:13 *311:15 8 
4 *311:15 *311:17 118.993 
5 *311:17 la_data_out[1] 17.1243 
*END

*D_NET *322 0.181666
*CONN
*P la_data_out[2] O
*I *652:data_out[2] O *D CF_ADC_SAR12
*CAP
1 la_data_out[2] 0.00169904
2 *652:data_out[2] 0.000403739
3 *322:33 0.00445316
4 *322:31 0.00275412
5 *322:29 0.0055785
6 *322:27 0.0055785
7 *322:25 0.00744413
8 *322:23 0.00797901
9 *322:17 0.000938617
10 *322:17 *333:23 0.000102654
11 *322:29 *333:29 0.0240679
12 *652:test_scanen *322:23 0.000341828
13 *652:hiz *322:23 2.17681e-05
14 *652:sof *322:23 0.00292506
15 *15:15 *322:25 0.00193824
16 *166:17 *322:29 0.000180664
17 *166:19 *322:25 0.0440324
18 *176:23 *322:25 1.66113e-05
19 *179:15 *322:25 7.91187e-05
20 *179:19 *322:17 0.000957762
21 *191:19 *322:23 0.000416411
22 *192:19 *322:23 0.00048075
23 *208:21 *322:17 0.000140203
24 *272:13 *322:17 0.000481477
25 *272:33 *322:29 0.0257328
26 *283:15 *322:17 4.30894e-05
27 *283:15 *322:23 0.00297678
28 *283:17 *322:25 0.0397181
29 *294:15 *322:17 8.81675e-05
30 *311:11 *322:17 9.55068e-05
*RES
1 *652:data_out[2] *322:17 44.0546 
2 *322:17 *322:23 21.4656 
3 *322:23 *322:25 562.165 
4 *322:25 *322:27 8 
5 *322:27 *322:29 50.288 
6 *322:29 *322:31 8 
7 *322:31 *322:33 61.2521 
8 *322:33 la_data_out[2] 36.2396 
*END

*D_NET *333 0.176266
*CONN
*P la_data_out[3] O
*I *652:data_out[3] O *D CF_ADC_SAR12
*CAP
1 la_data_out[3] 0.00169904
2 *652:data_out[3] 0.00200646
3 *333:33 0.00448403
4 *333:31 0.00278499
5 *333:29 0.00557871
6 *333:27 0.00557871
7 *333:25 0.0064531
8 *333:23 0.00845956
9 *333:23 *344:11 3.97687e-05
10 *333:23 *344:13 0.00040022
11 *333:23 *377:13 9.584e-06
12 *333:23 *399:12 0
13 *333:29 *366:19 0.0161855
14 *652:sof *333:23 2.047e-05
15 *652:test_sea *333:23 0
16 *652:reset_n *333:23 0
17 *652:iso_en *333:23 0
18 *155:21 *333:25 0.00708927
19 *166:17 *333:29 0.00128058
20 *177:19 *333:25 0.0429471
21 *178:23 *333:25 0.000218945
22 *203:23 *333:23 0.00314721
23 *208:21 *333:23 4.51815e-05
24 *272:29 *333:25 0.043543
25 *303:15 *333:23 0.000107127
26 *311:11 *333:23 1.69822e-05
27 *322:17 *333:23 0.000102654
28 *322:29 *333:29 0.0240679
*RES
1 *652:data_out[3] *333:23 42.1616 
2 *333:23 *333:25 553.714 
3 *333:25 *333:27 8 
4 *333:27 *333:29 45.7371 
5 *333:29 *333:31 8 
6 *333:31 *333:33 61.9564 
7 *333:33 la_data_out[3] 36.2396 
*END

*D_NET *344 0.0951761
*CONN
*P la_data_out[4] O
*I *652:data_out[4] O *D CF_ADC_SAR12
*CAP
1 la_data_out[4] 4.49146e-05
2 *652:data_out[4] 6.22845e-05
3 *344:21 0.00278903
4 *344:19 0.00274412
5 *344:17 0.011085
6 *344:13 0.0356082
7 *344:11 0.0245855
8 *344:11 *355:17 3.69984e-05
9 *344:13 *355:17 0.00208477
10 *344:13 *355:19 0
11 *344:13 *377:13 0.0155172
12 *344:13 *388:15 0.000123241
13 *344:13 *399:14 0
14 *652:sel_csel_dft[3] *344:13 0
15 *178:17 *344:13 0
16 *207:11 *344:17 0
17 *208:21 *344:11 4.51815e-05
18 *238:11 *344:17 0
19 *303:15 *344:11 9.75158e-06
20 *333:23 *344:11 3.97687e-05
21 *333:23 *344:13 0.00040022
*RES
1 *652:data_out[4] *344:11 16.8757 
2 *344:11 *344:13 107.569 
3 *344:13 *344:17 44.764 
4 *344:17 *344:19 8 
5 *344:19 *344:21 59.305 
6 *344:21 la_data_out[4] 1.02536 
*END

*D_NET *355 0.113019
*CONN
*P la_data_out[5] O
*I *652:data_out[5] O *D CF_ADC_SAR12
*CAP
1 la_data_out[5] 0.000201055
2 *652:data_out[5] 0.00152267
3 *355:25 0.00546087
4 *355:19 0.0343448
5 *355:17 0.0306077
6 *355:17 *377:13 0.00106379
7 la_data_out[11] *355:25 1.1377e-05
8 la_data_out[12] *355:25 0.00453693
9 *652:test_sea *355:19 0.0018829
10 *155:19 *355:25 0.00117326
11 *175:13 *355:25 0.000258242
12 *176:19 *355:19 0.0115557
13 *178:17 *355:19 0.00249677
14 *201:11 *355:25 0.00210318
15 *217:17 *355:17 0.000295855
16 *219:15 *355:17 0
17 *227:7 la_data_out[5] 0
18 *241:19 *355:25 8.03034e-05
19 *242:19 *355:25 0.00080253
20 *243:19 *355:25 7.35164e-05
21 *244:19 *355:25 0.012363
22 *260:13 *355:25 4.83736e-05
23 *271:13 *355:25 1.40476e-05
24 *344:11 *355:17 3.69984e-05
25 *344:13 *355:17 0.00208477
26 *344:13 *355:19 0
*RES
1 *652:data_out[5] *355:17 39.9821 
2 *355:17 *355:19 112.519 
3 *355:19 *355:25 47.7837 
4 *355:25 la_data_out[5] 4.69179 
*END

*D_NET *366 0.145152
*CONN
*P la_data_out[6] O
*I *652:data_out[6] O *D CF_ADC_SAR12
*CAP
1 la_data_out[6] 0.0017104
2 *652:data_out[6] 0.000120861
3 *366:21 0.0045132
4 *366:19 0.00754323
5 *366:13 0.0153665
6 *366:11 0.0107469
7 *366:11 *377:11 3.48365e-05
8 *366:11 *388:13 0.000166932
9 *366:13 *377:13 3.13737e-05
10 *366:13 *388:15 0.0424949
11 *366:13 *399:12 0.00460654
12 *366:13 *399:14 0.0334177
13 *652:iso_en *366:13 0
14 *166:17 *366:19 0.0080519
15 *208:21 *366:11 0.000161352
16 *333:29 *366:19 0.0161855
*RES
1 *652:data_out[6] *366:11 17.0904 
2 *366:11 *366:13 100.714 
3 *366:13 *366:19 46.8392 
4 *366:19 *366:21 62.6607 
5 *366:21 la_data_out[6] 36.2396 
*END

*D_NET *377 0.113069
*CONN
*P la_data_out[7] O
*I *652:data_out[7] O *D CF_ADC_SAR12
*CAP
1 la_data_out[7] 4.49146e-05
2 *652:data_out[7] 0.000304153
3 *377:25 0.00388556
4 *377:23 0.0124313
5 *377:13 0.0221034
6 *377:11 0.0138169
7 *377:11 *388:13 3.76132e-05
8 *377:13 *388:15 0.0431352
9 *652:sof *377:11 0.000226398
10 *204:11 *377:23 0
11 *208:21 *377:11 0.000423762
12 *272:13 *377:11 3.35885e-06
13 *272:33 *377:23 0
14 *283:15 *377:11 0
15 *333:23 *377:13 9.584e-06
16 *344:13 *377:13 0.0155172
17 *355:17 *377:13 0.00106379
18 *366:11 *377:11 3.48365e-05
19 *366:13 *377:13 3.13737e-05
*RES
1 *652:data_out[7] *377:11 18.9712 
2 *377:11 *377:13 102.618 
3 *377:13 *377:23 47.8107 
4 *377:23 *377:25 84.1414 
5 *377:25 la_data_out[7] 1.02536 
*END

*D_NET *388 0.130724
*CONN
*P la_data_out[8] O
*I *652:data_out[8] O *D CF_ADC_SAR12
*CAP
1 la_data_out[8] 4.49146e-05
2 *652:data_out[8] 0.00021923
3 *388:23 0.00342017
4 *388:21 0.0106223
5 *388:15 0.0181398
6 *388:13 0.011112
7 *388:15 *399:14 0.000913095
8 *204:11 *388:21 0
9 *208:21 *388:13 0.000118807
10 *272:13 *388:13 6.95627e-06
11 *272:27 *388:13 4.1318e-05
12 *283:15 *388:13 1.63502e-05
13 *303:15 *388:13 0.000110803
14 *344:13 *388:15 0.000123241
15 *366:11 *388:13 0.000166932
16 *366:13 *388:15 0.0424949
17 *377:11 *388:13 3.76132e-05
18 *377:13 *388:15 0.0431352
*RES
1 *652:data_out[8] *388:13 17.7027 
2 *388:13 *388:15 104.776 
3 *388:15 *388:21 40.2275 
4 *388:21 *388:23 73.3907 
5 *388:23 la_data_out[8] 1.02536 
*END

*D_NET *399 0.102182
*CONN
*P la_data_out[9] O
*I *652:data_out[9] O *D CF_ADC_SAR12
*CAP
1 la_data_out[9] 0.00124287
2 *652:data_out[9] 0.0043483
3 *399:20 0.00740737
4 *399:14 0.0259818
5 *399:12 0.0241656
6 *399:14 *652:ibias2p5u_1 0
7 *399:14 *646:63 0
8 *399:14 *646:89 0
9 *178:13 *399:20 9.83828e-05
10 *248:11 *399:20 0
11 *333:23 *399:12 0
12 *344:13 *399:14 0
13 *366:13 *399:12 0.00460654
14 *366:13 *399:14 0.0334177
15 *388:15 *399:14 0.000913095
*RES
1 *652:data_out[9] *399:12 36.3569 
2 *399:12 *399:14 92.1499 
3 *399:14 *399:20 36.7928 
4 *399:20 la_data_out[9] 25.3646 
*END

*D_NET *528 0.447327
*CONN
*P user_clock2 I
*I *652:refclk I *D CF_ADC_SAR12
*CAP
1 user_clock2 4.49146e-05
2 *652:refclk 0.00364952
3 *528:29 0.0272982
4 *528:27 0.0278606
5 *528:17 0.0798098
6 *528:15 0.0755979
7 *528:13 0.00237104
8 *528:11 0.00237104
9 *528:9 0.0181457
10 *528:7 0.0181907
11 *652:pd_ana *652:refclk 0
12 *20:23 *652:refclk 0
13 *156:11 *528:9 0.000122056
14 *160:11 *528:17 0
15 *163:11 *528:17 0.118243
16 *184:11 *528:17 0
17 *207:11 *528:17 0.0718768
18 *208:21 *652:refclk 9.59396e-05
19 *260:41 *652:refclk 0.00164923
*RES
1 user_clock2 *528:7 9.02536 
2 *528:7 *528:9 59.9909 
3 *528:9 *528:11 8 
4 *528:11 *528:13 52.9664 
5 *528:13 *528:15 8 
6 *528:15 *528:17 365.29 
7 *528:17 *528:27 21.5147 
8 *528:27 *528:29 83.1413 
9 *528:29 *652:refclk 31.026 
*END

*D_NET *646 0.253432
*CONN
*I *652:ibias2p5u_1 I *D CF_ADC_SAR12
*I *652:ibias2p5u I *D CF_ADC_SAR12
*I *653:IREF_VCMBUF I *D CF_ADC_SAR12_sar_refs
*I *653:IREF_VREFBUF I *D CF_ADC_SAR12_sar_refs
*I *655:ibias I *D CF_BUF_HIZ
*I *654:ibg_2p375uA O *D CF_BGR
*CAP
1 *652:ibias2p5u_1 0.000216416
2 *652:ibias2p5u 5.28631e-05
3 *653:IREF_VCMBUF 0.000165574
4 *653:IREF_VREFBUF 0.000429543
5 *655:ibias 0.000281875
6 *654:ibg_2p375uA 0.000248776
7 *646:89 0.000676948
8 *646:69 0.0170032
9 *646:67 0.0167393
10 *646:65 0.0137526
11 *646:63 0.0163599
12 *646:55 0.00646461
13 *646:39 0.0169989
14 *646:29 0.0171989
15 *646:25 0.0126125
16 *646:17 0.0260618
17 *646:15 0.0170658
18 *653:IREF_VCMBUF *649:13 0
19 *653:IREF_VREFBUF *649:13 0.000274777
20 *646:15 *647:9 6.59086e-05
21 *646:15 *647:11 0.00047109
22 *646:39 *652:vinp 0.0146494
23 *646:55 *652:vinp 0.0051325
24 *652:vreflo *646:55 5.57407e-05
25 *652:vreflo *646:63 0
26 *652:vinm *646:29 0.00935931
27 *652:vinm *646:39 0.0547661
28 *652:vinm *646:55 0.00573929
29 *653:vref[0] *653:IREF_VCMBUF 4.45155e-06
30 *653:vref[0] *653:IREF_VREFBUF 0.000272286
31 *654:dft_curr_in *646:15 9.0331e-06
32 *11:15 *646:25 0
33 *220:15 *653:IREF_VCMBUF 0.00030281
34 *220:15 *653:IREF_VREFBUF 0
35 *399:14 *652:ibias2p5u_1 0
36 *399:14 *646:63 0
37 *399:14 *646:89 0
*RES
1 *654:ibg_2p375uA *646:15 18.6428 
2 *646:15 *646:17 57.6837 
3 *646:17 *646:25 48.0395 
4 *646:25 *646:29 25.2723 
5 *646:29 *655:ibias 14.6234 
6 *646:29 *646:39 100.821 
7 *646:39 *646:55 45.9408 
8 *646:55 *646:63 16.3477 
9 *646:63 *646:65 44.4491 
10 *646:65 *646:67 8 
11 *646:67 *646:69 57.6837 
12 *646:69 *653:IREF_VREFBUF 9.6184 
13 *653:IREF_VREFBUF *653:IREF_VCMBUF 1.0276 
14 *646:55 *646:89 1.64173 
15 *646:89 *652:ibias2p5u 0.309867 
16 *646:89 *652:ibias2p5u_1 0.835333 
*END

*D_NET *647 0.0723714
*CONN
*I *656:nbias I *D CF_REFBUF
*I *654:ibg_3uA O *D CF_BGR
*CAP
1 *656:nbias 0.00242158
2 *654:ibg_3uA 3.33846e-05
3 *647:15 0.00348429
4 *647:11 0.0188695
5 *647:9 0.0178401
6 *647:9 *651:9 7.43458e-05
7 *647:11 *651:11 0.0255833
8 *19:15 *647:15 0.000467835
9 *26:9 *647:15 0.0030601
10 *646:15 *647:9 6.59086e-05
11 *646:15 *647:11 0.00047109
*RES
1 *654:ibg_3uA *647:9 9.3775 
2 *647:9 *647:11 89.1856 
3 *647:11 *647:15 46.8807 
4 *647:15 *656:nbias 40.0446 
*END

*D_NET *648 0.119059
*CONN
*I *652:refby2 I *D CF_ADC_SAR12
*I *653:REFBY2 O *D CF_ADC_SAR12_sar_refs
*CAP
1 *652:refby2 7.05298e-05
2 *653:REFBY2 0.00738568
3 *648:23 0.0356964
4 *648:21 0.0356259
5 *648:19 0.0143043
6 *648:17 0.0143043
7 *648:15 0.00738568
8 *648:15 *649:13 1.48414e-05
9 *653:vref[0] *648:15 3.78533e-05
10 *19:65 *648:15 0.000205309
11 *156:25 *648:15 0.00347518
12 *160:17 *648:19 0.000553197
13 *161:19 *648:15 0
*RES
1 *653:REFBY2 *648:15 44.9585 
2 *648:15 *648:17 8 
3 *648:17 *648:19 48.5445 
4 *648:19 *648:21 8 
5 *648:21 *648:23 120.613 
6 *648:23 *652:refby2 8.21653 
*END

*D_NET *649 0.0733319
*CONN
*I *652:vrefhi I *D CF_ADC_SAR12
*I *653:REFHI O *D CF_ADC_SAR12_sar_refs
*CAP
1 *652:vrefhi 0.00815871
2 *653:REFHI 0.00959684
3 *649:15 0.0202792
4 *649:13 0.0217174
5 *653:vref[0] *649:13 0.000155273
6 *653:IREF_VCMBUF *649:13 0
7 *653:IREF_VREFBUF *649:13 0.000274777
8 *19:67 *649:13 0
9 *159:23 *649:15 0.00700974
10 *188:15 *649:15 0.00612513
11 *199:13 *649:13 0
12 *220:15 *649:13 0
13 *648:15 *649:13 1.48414e-05
*RES
1 *653:REFHI *649:13 49.3265 
2 *649:13 *649:15 55.3989 
3 *649:15 *652:vrefhi 33.788 
*END

*D_NET *650 0.114694
*CONN
*I *652:vinp I *D CF_ADC_SAR12
*I *655:vout O *D CF_BUF_HIZ
*CAP
1 *652:vinp 0.019915
2 *655:vout 0.00943057
3 *650:12 0.019915
4 *650:10 0.00735363
5 *650:8 0.0167842
6 *652:vinm *652:vinp 2.3185e-05
7 *655:vbpcid *650:8 0.000320139
8 *2:13 *650:10 0.0162582
9 *5:13 *650:10 0.000274753
10 *240:21 *650:10 0.00463738
11 *646:39 *652:vinp 0.0146494
12 *646:55 *652:vinp 0.0051325
*RES
1 *655:vout *650:8 47.3544 
2 *650:8 *650:10 247.349 
3 *650:10 *650:12 8 
4 *650:12 *652:vinp 93.9232 
*END

*D_NET *651 0.0738858
*CONN
*I *656:ref_1v2 I *D CF_REFBUF
*I *654:Vout O *D CF_BGR
*CAP
1 *656:ref_1v2 0.00330661
2 *654:Vout 7.13872e-05
3 *651:15 0.00486476
4 *651:13 0.00155815
5 *651:11 0.0169268
6 *651:9 0.0169981
7 *24:9 *651:15 0.00450236
8 *647:9 *651:9 7.43458e-05
9 *647:11 *651:11 0.0255833
*RES
1 *654:Vout *651:9 9.85393 
2 *651:9 *651:11 86.6096 
3 *651:11 *651:13 8 
4 *651:13 *651:15 57.1921 
5 *651:15 *656:ref_1v2 26.6213 
*END
